&CONTROL
    calculation = "scf"
    prefix      = "NbSe2"
    outdir      =  "./outdir"
    pseudo_dir  = "../PP/"
    restart_mode='from_scratch'

/

&SYSTEM
    a                         =  3.45574e+00
    c                         =  2.33679e+01
    degauss                   =  1.00000e-02
    ecutrho                   =  4.96823e+02
    ecutwfc                   =  5.52025e+01
    ibrav                     = 4
    nat                       = 3
    ntyp                      = 2
    occupations               = "smearing"
    smearing                  = "gaussian"
/

&ELECTRONS
    conv_thr         =  1.00000e-08
    mixing_beta      =  4.00000e-01
/

K_POINTS {automatic}
 8  8  1  0 0 0

ATOMIC_SPECIES
Nb     92.90638  Nb.pbe-spn-kjpaw_psl.1.0.0.UPF
Se     78.96000  Se.pbe-dn-kjpaw_psl.1.0.0.UPF


ATOMIC_POSITIONS {crystal}
Se      0.333333   0.666666   0.572648
Nb      0.000000   0.000000   0.500000
Se      0.333333   0.666666   0.427353

