&CONTROL
    calculation = "scf"
    restart_mode='from_scratch'
    prefix='nbse2'
    outdir='./outdir'
    pseudo_dir   = "../Pseudos/"
/

&SYSTEM
    degauss                   =  0.05
    ecutrho                   =  230
    ecutwfc                   =  30
    ibrav                     = 0
    nat                       = 27
    ntyp                      = 2
    occupations               = "smearing"
    smearing                  = "gaussian"
    lspinorb                  = .TRUE.
    noncolin                  = .TRUE.
/

&ELECTRONS
    conv_thr         =  1.00000e-06
    mixing_beta      =  4.00000e-01
/

K_POINTS {automatic}
 4  4  1  0 0 0

 CELL_PARAMETERS {angstrom}
   9.052390  -5.226400   0.000000
   0.000000  10.452800   0.000000
   0.000000   0.000000  18.414500


ATOMIC_SPECIES
Se     78.96000  Se.rel-pbe-n-kjpaw_psl.0.2.UPF
Nb     92.90638  Nb.rel-pbe-spn-kjpaw_psl.1.0.0.UPF


ATOMIC_POSITIONS {crystal}
Nb      0.108063   0.216127   0.500000
Nb      0.783873   0.891937   0.500000
Nb      0.108063   0.891937   0.500000
Nb      0.436680   0.218340   0.500000
Nb      0.781660   0.218340   0.500000
Nb      0.781660   0.563320   0.500000
Nb      0.119900   0.559950   0.500000
Nb      0.440050   0.559950   0.500000
Nb      0.440050   0.880100   0.500000
Se      0.221160   0.110580   0.406662
Se      0.889420   0.110580   0.406662
Se      0.889420   0.778840   0.406662
Se      0.221160   0.110580   0.593338
Se      0.889420   0.110580   0.593338
Se      0.889420   0.778840   0.593338
Se      0.555230   0.110460   0.410797
Se      0.889540   0.444770   0.410797
Se      0.555230   0.444770   0.410797
Se      0.555230   0.110460   0.589203
Se      0.889540   0.444770   0.589203
Se      0.555230   0.444770   0.589203
Se      0.220537   0.441073   0.408351
Se      0.558927   0.779463   0.408351
Se      0.220537   0.779463   0.408351
Se      0.220537   0.441073   0.591649
Se      0.558927   0.779463   0.591649
Se      0.220537   0.779463   0.591649
