&inputpp
   outdir = './outdir'
   prefix = 'Li'
   seedname = 'Li'
   write_mmn = .true.
   write_amn = .true.
   write_spn = .false.
   write_unk = .false.
/

