num_bands = 6
num_wann =4

!dis_froz_min =  -5
!dis_froz_max =   15

dis_win_min =   -5
dis_win_max =   25

write_hr=T
!guiding_centres=T

Begin Projections
Li:s;px;py;pz
End Projections

kpath = true
kpath_task = bands
fermi_energy = 0.9767

kpath_num_points=100

!use_bloch_phases : T

!kslice = true
!kslice_task = fermi_lines
!fermi_energy = -1.6153
!kslice_2dkmesh = 100 100
!kslice_corner = 0.0  0.0  0.0
!kslice_b1 =     2 -2 0
!kslice_b2 =     2  2  0


begin unit_cell_cart
  1.713410   1.713410   1.713410
 -1.713410   1.713410   1.713410
 -1.713410  -1.713410   1.713410
end unit_cell_cart

begin atoms_cart
Li      0.000000   0.000000   0.000000
end atoms_cart


bands_plot = true

begin kpoint_path
G 0.0000000000    0.0000000000     0.0000000000  N 0.0000000000    0.5000000000     0.0000000000
N 0.0000000000    0.5000000000     0.0000000000  P 0.2500000000    0.2500000000     0.2500000000
P 0.2500000000    0.2500000000     0.2500000000  G 0.0000000000    0.0000000000     0.0000000000 
G 0.0000000000    0.0000000000     0.0000000000  H -0.5000000000   0.5000000000     0.0000000000
H -0.5000000000   0.5000000000     0.0000000000  N 0.0000000000    0.5000000000     0.0000000000
end kpoint_path

mp_grid           = 32 32 32
begin kpoints
  0.00000000  0.00000000  0.00000000  3.051758e-05
  0.00000000  0.00000000  0.03125000  3.051758e-05
  0.00000000  0.00000000  0.06250000  3.051758e-05
  0.00000000  0.00000000  0.09375000  3.051758e-05
  0.00000000  0.00000000  0.12500000  3.051758e-05
  0.00000000  0.00000000  0.15625000  3.051758e-05
  0.00000000  0.00000000  0.18750000  3.051758e-05
  0.00000000  0.00000000  0.21875000  3.051758e-05
  0.00000000  0.00000000  0.25000000  3.051758e-05
  0.00000000  0.00000000  0.28125000  3.051758e-05
  0.00000000  0.00000000  0.31250000  3.051758e-05
  0.00000000  0.00000000  0.34375000  3.051758e-05
  0.00000000  0.00000000  0.37500000  3.051758e-05
  0.00000000  0.00000000  0.40625000  3.051758e-05
  0.00000000  0.00000000  0.43750000  3.051758e-05
  0.00000000  0.00000000  0.46875000  3.051758e-05
  0.00000000  0.00000000  0.50000000  3.051758e-05
  0.00000000  0.00000000  0.53125000  3.051758e-05
  0.00000000  0.00000000  0.56250000  3.051758e-05
  0.00000000  0.00000000  0.59375000  3.051758e-05
  0.00000000  0.00000000  0.62500000  3.051758e-05
  0.00000000  0.00000000  0.65625000  3.051758e-05
  0.00000000  0.00000000  0.68750000  3.051758e-05
  0.00000000  0.00000000  0.71875000  3.051758e-05
  0.00000000  0.00000000  0.75000000  3.051758e-05
  0.00000000  0.00000000  0.78125000  3.051758e-05
  0.00000000  0.00000000  0.81250000  3.051758e-05
  0.00000000  0.00000000  0.84375000  3.051758e-05
  0.00000000  0.00000000  0.87500000  3.051758e-05
  0.00000000  0.00000000  0.90625000  3.051758e-05
  0.00000000  0.00000000  0.93750000  3.051758e-05
  0.00000000  0.00000000  0.96875000  3.051758e-05
  0.00000000  0.03125000  0.00000000  3.051758e-05
  0.00000000  0.03125000  0.03125000  3.051758e-05
  0.00000000  0.03125000  0.06250000  3.051758e-05
  0.00000000  0.03125000  0.09375000  3.051758e-05
  0.00000000  0.03125000  0.12500000  3.051758e-05
  0.00000000  0.03125000  0.15625000  3.051758e-05
  0.00000000  0.03125000  0.18750000  3.051758e-05
  0.00000000  0.03125000  0.21875000  3.051758e-05
  0.00000000  0.03125000  0.25000000  3.051758e-05
  0.00000000  0.03125000  0.28125000  3.051758e-05
  0.00000000  0.03125000  0.31250000  3.051758e-05
  0.00000000  0.03125000  0.34375000  3.051758e-05
  0.00000000  0.03125000  0.37500000  3.051758e-05
  0.00000000  0.03125000  0.40625000  3.051758e-05
  0.00000000  0.03125000  0.43750000  3.051758e-05
  0.00000000  0.03125000  0.46875000  3.051758e-05
  0.00000000  0.03125000  0.50000000  3.051758e-05
  0.00000000  0.03125000  0.53125000  3.051758e-05
  0.00000000  0.03125000  0.56250000  3.051758e-05
  0.00000000  0.03125000  0.59375000  3.051758e-05
  0.00000000  0.03125000  0.62500000  3.051758e-05
  0.00000000  0.03125000  0.65625000  3.051758e-05
  0.00000000  0.03125000  0.68750000  3.051758e-05
  0.00000000  0.03125000  0.71875000  3.051758e-05
  0.00000000  0.03125000  0.75000000  3.051758e-05
  0.00000000  0.03125000  0.78125000  3.051758e-05
  0.00000000  0.03125000  0.81250000  3.051758e-05
  0.00000000  0.03125000  0.84375000  3.051758e-05
  0.00000000  0.03125000  0.87500000  3.051758e-05
  0.00000000  0.03125000  0.90625000  3.051758e-05
  0.00000000  0.03125000  0.93750000  3.051758e-05
  0.00000000  0.03125000  0.96875000  3.051758e-05
  0.00000000  0.06250000  0.00000000  3.051758e-05
  0.00000000  0.06250000  0.03125000  3.051758e-05
  0.00000000  0.06250000  0.06250000  3.051758e-05
  0.00000000  0.06250000  0.09375000  3.051758e-05
  0.00000000  0.06250000  0.12500000  3.051758e-05
  0.00000000  0.06250000  0.15625000  3.051758e-05
  0.00000000  0.06250000  0.18750000  3.051758e-05
  0.00000000  0.06250000  0.21875000  3.051758e-05
  0.00000000  0.06250000  0.25000000  3.051758e-05
  0.00000000  0.06250000  0.28125000  3.051758e-05
  0.00000000  0.06250000  0.31250000  3.051758e-05
  0.00000000  0.06250000  0.34375000  3.051758e-05
  0.00000000  0.06250000  0.37500000  3.051758e-05
  0.00000000  0.06250000  0.40625000  3.051758e-05
  0.00000000  0.06250000  0.43750000  3.051758e-05
  0.00000000  0.06250000  0.46875000  3.051758e-05
  0.00000000  0.06250000  0.50000000  3.051758e-05
  0.00000000  0.06250000  0.53125000  3.051758e-05
  0.00000000  0.06250000  0.56250000  3.051758e-05
  0.00000000  0.06250000  0.59375000  3.051758e-05
  0.00000000  0.06250000  0.62500000  3.051758e-05
  0.00000000  0.06250000  0.65625000  3.051758e-05
  0.00000000  0.06250000  0.68750000  3.051758e-05
  0.00000000  0.06250000  0.71875000  3.051758e-05
  0.00000000  0.06250000  0.75000000  3.051758e-05
  0.00000000  0.06250000  0.78125000  3.051758e-05
  0.00000000  0.06250000  0.81250000  3.051758e-05
  0.00000000  0.06250000  0.84375000  3.051758e-05
  0.00000000  0.06250000  0.87500000  3.051758e-05
  0.00000000  0.06250000  0.90625000  3.051758e-05
  0.00000000  0.06250000  0.93750000  3.051758e-05
  0.00000000  0.06250000  0.96875000  3.051758e-05
  0.00000000  0.09375000  0.00000000  3.051758e-05
  0.00000000  0.09375000  0.03125000  3.051758e-05
  0.00000000  0.09375000  0.06250000  3.051758e-05
  0.00000000  0.09375000  0.09375000  3.051758e-05
  0.00000000  0.09375000  0.12500000  3.051758e-05
  0.00000000  0.09375000  0.15625000  3.051758e-05
  0.00000000  0.09375000  0.18750000  3.051758e-05
  0.00000000  0.09375000  0.21875000  3.051758e-05
  0.00000000  0.09375000  0.25000000  3.051758e-05
  0.00000000  0.09375000  0.28125000  3.051758e-05
  0.00000000  0.09375000  0.31250000  3.051758e-05
  0.00000000  0.09375000  0.34375000  3.051758e-05
  0.00000000  0.09375000  0.37500000  3.051758e-05
  0.00000000  0.09375000  0.40625000  3.051758e-05
  0.00000000  0.09375000  0.43750000  3.051758e-05
  0.00000000  0.09375000  0.46875000  3.051758e-05
  0.00000000  0.09375000  0.50000000  3.051758e-05
  0.00000000  0.09375000  0.53125000  3.051758e-05
  0.00000000  0.09375000  0.56250000  3.051758e-05
  0.00000000  0.09375000  0.59375000  3.051758e-05
  0.00000000  0.09375000  0.62500000  3.051758e-05
  0.00000000  0.09375000  0.65625000  3.051758e-05
  0.00000000  0.09375000  0.68750000  3.051758e-05
  0.00000000  0.09375000  0.71875000  3.051758e-05
  0.00000000  0.09375000  0.75000000  3.051758e-05
  0.00000000  0.09375000  0.78125000  3.051758e-05
  0.00000000  0.09375000  0.81250000  3.051758e-05
  0.00000000  0.09375000  0.84375000  3.051758e-05
  0.00000000  0.09375000  0.87500000  3.051758e-05
  0.00000000  0.09375000  0.90625000  3.051758e-05
  0.00000000  0.09375000  0.93750000  3.051758e-05
  0.00000000  0.09375000  0.96875000  3.051758e-05
  0.00000000  0.12500000  0.00000000  3.051758e-05
  0.00000000  0.12500000  0.03125000  3.051758e-05
  0.00000000  0.12500000  0.06250000  3.051758e-05
  0.00000000  0.12500000  0.09375000  3.051758e-05
  0.00000000  0.12500000  0.12500000  3.051758e-05
  0.00000000  0.12500000  0.15625000  3.051758e-05
  0.00000000  0.12500000  0.18750000  3.051758e-05
  0.00000000  0.12500000  0.21875000  3.051758e-05
  0.00000000  0.12500000  0.25000000  3.051758e-05
  0.00000000  0.12500000  0.28125000  3.051758e-05
  0.00000000  0.12500000  0.31250000  3.051758e-05
  0.00000000  0.12500000  0.34375000  3.051758e-05
  0.00000000  0.12500000  0.37500000  3.051758e-05
  0.00000000  0.12500000  0.40625000  3.051758e-05
  0.00000000  0.12500000  0.43750000  3.051758e-05
  0.00000000  0.12500000  0.46875000  3.051758e-05
  0.00000000  0.12500000  0.50000000  3.051758e-05
  0.00000000  0.12500000  0.53125000  3.051758e-05
  0.00000000  0.12500000  0.56250000  3.051758e-05
  0.00000000  0.12500000  0.59375000  3.051758e-05
  0.00000000  0.12500000  0.62500000  3.051758e-05
  0.00000000  0.12500000  0.65625000  3.051758e-05
  0.00000000  0.12500000  0.68750000  3.051758e-05
  0.00000000  0.12500000  0.71875000  3.051758e-05
  0.00000000  0.12500000  0.75000000  3.051758e-05
  0.00000000  0.12500000  0.78125000  3.051758e-05
  0.00000000  0.12500000  0.81250000  3.051758e-05
  0.00000000  0.12500000  0.84375000  3.051758e-05
  0.00000000  0.12500000  0.87500000  3.051758e-05
  0.00000000  0.12500000  0.90625000  3.051758e-05
  0.00000000  0.12500000  0.93750000  3.051758e-05
  0.00000000  0.12500000  0.96875000  3.051758e-05
  0.00000000  0.15625000  0.00000000  3.051758e-05
  0.00000000  0.15625000  0.03125000  3.051758e-05
  0.00000000  0.15625000  0.06250000  3.051758e-05
  0.00000000  0.15625000  0.09375000  3.051758e-05
  0.00000000  0.15625000  0.12500000  3.051758e-05
  0.00000000  0.15625000  0.15625000  3.051758e-05
  0.00000000  0.15625000  0.18750000  3.051758e-05
  0.00000000  0.15625000  0.21875000  3.051758e-05
  0.00000000  0.15625000  0.25000000  3.051758e-05
  0.00000000  0.15625000  0.28125000  3.051758e-05
  0.00000000  0.15625000  0.31250000  3.051758e-05
  0.00000000  0.15625000  0.34375000  3.051758e-05
  0.00000000  0.15625000  0.37500000  3.051758e-05
  0.00000000  0.15625000  0.40625000  3.051758e-05
  0.00000000  0.15625000  0.43750000  3.051758e-05
  0.00000000  0.15625000  0.46875000  3.051758e-05
  0.00000000  0.15625000  0.50000000  3.051758e-05
  0.00000000  0.15625000  0.53125000  3.051758e-05
  0.00000000  0.15625000  0.56250000  3.051758e-05
  0.00000000  0.15625000  0.59375000  3.051758e-05
  0.00000000  0.15625000  0.62500000  3.051758e-05
  0.00000000  0.15625000  0.65625000  3.051758e-05
  0.00000000  0.15625000  0.68750000  3.051758e-05
  0.00000000  0.15625000  0.71875000  3.051758e-05
  0.00000000  0.15625000  0.75000000  3.051758e-05
  0.00000000  0.15625000  0.78125000  3.051758e-05
  0.00000000  0.15625000  0.81250000  3.051758e-05
  0.00000000  0.15625000  0.84375000  3.051758e-05
  0.00000000  0.15625000  0.87500000  3.051758e-05
  0.00000000  0.15625000  0.90625000  3.051758e-05
  0.00000000  0.15625000  0.93750000  3.051758e-05
  0.00000000  0.15625000  0.96875000  3.051758e-05
  0.00000000  0.18750000  0.00000000  3.051758e-05
  0.00000000  0.18750000  0.03125000  3.051758e-05
  0.00000000  0.18750000  0.06250000  3.051758e-05
  0.00000000  0.18750000  0.09375000  3.051758e-05
  0.00000000  0.18750000  0.12500000  3.051758e-05
  0.00000000  0.18750000  0.15625000  3.051758e-05
  0.00000000  0.18750000  0.18750000  3.051758e-05
  0.00000000  0.18750000  0.21875000  3.051758e-05
  0.00000000  0.18750000  0.25000000  3.051758e-05
  0.00000000  0.18750000  0.28125000  3.051758e-05
  0.00000000  0.18750000  0.31250000  3.051758e-05
  0.00000000  0.18750000  0.34375000  3.051758e-05
  0.00000000  0.18750000  0.37500000  3.051758e-05
  0.00000000  0.18750000  0.40625000  3.051758e-05
  0.00000000  0.18750000  0.43750000  3.051758e-05
  0.00000000  0.18750000  0.46875000  3.051758e-05
  0.00000000  0.18750000  0.50000000  3.051758e-05
  0.00000000  0.18750000  0.53125000  3.051758e-05
  0.00000000  0.18750000  0.56250000  3.051758e-05
  0.00000000  0.18750000  0.59375000  3.051758e-05
  0.00000000  0.18750000  0.62500000  3.051758e-05
  0.00000000  0.18750000  0.65625000  3.051758e-05
  0.00000000  0.18750000  0.68750000  3.051758e-05
  0.00000000  0.18750000  0.71875000  3.051758e-05
  0.00000000  0.18750000  0.75000000  3.051758e-05
  0.00000000  0.18750000  0.78125000  3.051758e-05
  0.00000000  0.18750000  0.81250000  3.051758e-05
  0.00000000  0.18750000  0.84375000  3.051758e-05
  0.00000000  0.18750000  0.87500000  3.051758e-05
  0.00000000  0.18750000  0.90625000  3.051758e-05
  0.00000000  0.18750000  0.93750000  3.051758e-05
  0.00000000  0.18750000  0.96875000  3.051758e-05
  0.00000000  0.21875000  0.00000000  3.051758e-05
  0.00000000  0.21875000  0.03125000  3.051758e-05
  0.00000000  0.21875000  0.06250000  3.051758e-05
  0.00000000  0.21875000  0.09375000  3.051758e-05
  0.00000000  0.21875000  0.12500000  3.051758e-05
  0.00000000  0.21875000  0.15625000  3.051758e-05
  0.00000000  0.21875000  0.18750000  3.051758e-05
  0.00000000  0.21875000  0.21875000  3.051758e-05
  0.00000000  0.21875000  0.25000000  3.051758e-05
  0.00000000  0.21875000  0.28125000  3.051758e-05
  0.00000000  0.21875000  0.31250000  3.051758e-05
  0.00000000  0.21875000  0.34375000  3.051758e-05
  0.00000000  0.21875000  0.37500000  3.051758e-05
  0.00000000  0.21875000  0.40625000  3.051758e-05
  0.00000000  0.21875000  0.43750000  3.051758e-05
  0.00000000  0.21875000  0.46875000  3.051758e-05
  0.00000000  0.21875000  0.50000000  3.051758e-05
  0.00000000  0.21875000  0.53125000  3.051758e-05
  0.00000000  0.21875000  0.56250000  3.051758e-05
  0.00000000  0.21875000  0.59375000  3.051758e-05
  0.00000000  0.21875000  0.62500000  3.051758e-05
  0.00000000  0.21875000  0.65625000  3.051758e-05
  0.00000000  0.21875000  0.68750000  3.051758e-05
  0.00000000  0.21875000  0.71875000  3.051758e-05
  0.00000000  0.21875000  0.75000000  3.051758e-05
  0.00000000  0.21875000  0.78125000  3.051758e-05
  0.00000000  0.21875000  0.81250000  3.051758e-05
  0.00000000  0.21875000  0.84375000  3.051758e-05
  0.00000000  0.21875000  0.87500000  3.051758e-05
  0.00000000  0.21875000  0.90625000  3.051758e-05
  0.00000000  0.21875000  0.93750000  3.051758e-05
  0.00000000  0.21875000  0.96875000  3.051758e-05
  0.00000000  0.25000000  0.00000000  3.051758e-05
  0.00000000  0.25000000  0.03125000  3.051758e-05
  0.00000000  0.25000000  0.06250000  3.051758e-05
  0.00000000  0.25000000  0.09375000  3.051758e-05
  0.00000000  0.25000000  0.12500000  3.051758e-05
  0.00000000  0.25000000  0.15625000  3.051758e-05
  0.00000000  0.25000000  0.18750000  3.051758e-05
  0.00000000  0.25000000  0.21875000  3.051758e-05
  0.00000000  0.25000000  0.25000000  3.051758e-05
  0.00000000  0.25000000  0.28125000  3.051758e-05
  0.00000000  0.25000000  0.31250000  3.051758e-05
  0.00000000  0.25000000  0.34375000  3.051758e-05
  0.00000000  0.25000000  0.37500000  3.051758e-05
  0.00000000  0.25000000  0.40625000  3.051758e-05
  0.00000000  0.25000000  0.43750000  3.051758e-05
  0.00000000  0.25000000  0.46875000  3.051758e-05
  0.00000000  0.25000000  0.50000000  3.051758e-05
  0.00000000  0.25000000  0.53125000  3.051758e-05
  0.00000000  0.25000000  0.56250000  3.051758e-05
  0.00000000  0.25000000  0.59375000  3.051758e-05
  0.00000000  0.25000000  0.62500000  3.051758e-05
  0.00000000  0.25000000  0.65625000  3.051758e-05
  0.00000000  0.25000000  0.68750000  3.051758e-05
  0.00000000  0.25000000  0.71875000  3.051758e-05
  0.00000000  0.25000000  0.75000000  3.051758e-05
  0.00000000  0.25000000  0.78125000  3.051758e-05
  0.00000000  0.25000000  0.81250000  3.051758e-05
  0.00000000  0.25000000  0.84375000  3.051758e-05
  0.00000000  0.25000000  0.87500000  3.051758e-05
  0.00000000  0.25000000  0.90625000  3.051758e-05
  0.00000000  0.25000000  0.93750000  3.051758e-05
  0.00000000  0.25000000  0.96875000  3.051758e-05
  0.00000000  0.28125000  0.00000000  3.051758e-05
  0.00000000  0.28125000  0.03125000  3.051758e-05
  0.00000000  0.28125000  0.06250000  3.051758e-05
  0.00000000  0.28125000  0.09375000  3.051758e-05
  0.00000000  0.28125000  0.12500000  3.051758e-05
  0.00000000  0.28125000  0.15625000  3.051758e-05
  0.00000000  0.28125000  0.18750000  3.051758e-05
  0.00000000  0.28125000  0.21875000  3.051758e-05
  0.00000000  0.28125000  0.25000000  3.051758e-05
  0.00000000  0.28125000  0.28125000  3.051758e-05
  0.00000000  0.28125000  0.31250000  3.051758e-05
  0.00000000  0.28125000  0.34375000  3.051758e-05
  0.00000000  0.28125000  0.37500000  3.051758e-05
  0.00000000  0.28125000  0.40625000  3.051758e-05
  0.00000000  0.28125000  0.43750000  3.051758e-05
  0.00000000  0.28125000  0.46875000  3.051758e-05
  0.00000000  0.28125000  0.50000000  3.051758e-05
  0.00000000  0.28125000  0.53125000  3.051758e-05
  0.00000000  0.28125000  0.56250000  3.051758e-05
  0.00000000  0.28125000  0.59375000  3.051758e-05
  0.00000000  0.28125000  0.62500000  3.051758e-05
  0.00000000  0.28125000  0.65625000  3.051758e-05
  0.00000000  0.28125000  0.68750000  3.051758e-05
  0.00000000  0.28125000  0.71875000  3.051758e-05
  0.00000000  0.28125000  0.75000000  3.051758e-05
  0.00000000  0.28125000  0.78125000  3.051758e-05
  0.00000000  0.28125000  0.81250000  3.051758e-05
  0.00000000  0.28125000  0.84375000  3.051758e-05
  0.00000000  0.28125000  0.87500000  3.051758e-05
  0.00000000  0.28125000  0.90625000  3.051758e-05
  0.00000000  0.28125000  0.93750000  3.051758e-05
  0.00000000  0.28125000  0.96875000  3.051758e-05
  0.00000000  0.31250000  0.00000000  3.051758e-05
  0.00000000  0.31250000  0.03125000  3.051758e-05
  0.00000000  0.31250000  0.06250000  3.051758e-05
  0.00000000  0.31250000  0.09375000  3.051758e-05
  0.00000000  0.31250000  0.12500000  3.051758e-05
  0.00000000  0.31250000  0.15625000  3.051758e-05
  0.00000000  0.31250000  0.18750000  3.051758e-05
  0.00000000  0.31250000  0.21875000  3.051758e-05
  0.00000000  0.31250000  0.25000000  3.051758e-05
  0.00000000  0.31250000  0.28125000  3.051758e-05
  0.00000000  0.31250000  0.31250000  3.051758e-05
  0.00000000  0.31250000  0.34375000  3.051758e-05
  0.00000000  0.31250000  0.37500000  3.051758e-05
  0.00000000  0.31250000  0.40625000  3.051758e-05
  0.00000000  0.31250000  0.43750000  3.051758e-05
  0.00000000  0.31250000  0.46875000  3.051758e-05
  0.00000000  0.31250000  0.50000000  3.051758e-05
  0.00000000  0.31250000  0.53125000  3.051758e-05
  0.00000000  0.31250000  0.56250000  3.051758e-05
  0.00000000  0.31250000  0.59375000  3.051758e-05
  0.00000000  0.31250000  0.62500000  3.051758e-05
  0.00000000  0.31250000  0.65625000  3.051758e-05
  0.00000000  0.31250000  0.68750000  3.051758e-05
  0.00000000  0.31250000  0.71875000  3.051758e-05
  0.00000000  0.31250000  0.75000000  3.051758e-05
  0.00000000  0.31250000  0.78125000  3.051758e-05
  0.00000000  0.31250000  0.81250000  3.051758e-05
  0.00000000  0.31250000  0.84375000  3.051758e-05
  0.00000000  0.31250000  0.87500000  3.051758e-05
  0.00000000  0.31250000  0.90625000  3.051758e-05
  0.00000000  0.31250000  0.93750000  3.051758e-05
  0.00000000  0.31250000  0.96875000  3.051758e-05
  0.00000000  0.34375000  0.00000000  3.051758e-05
  0.00000000  0.34375000  0.03125000  3.051758e-05
  0.00000000  0.34375000  0.06250000  3.051758e-05
  0.00000000  0.34375000  0.09375000  3.051758e-05
  0.00000000  0.34375000  0.12500000  3.051758e-05
  0.00000000  0.34375000  0.15625000  3.051758e-05
  0.00000000  0.34375000  0.18750000  3.051758e-05
  0.00000000  0.34375000  0.21875000  3.051758e-05
  0.00000000  0.34375000  0.25000000  3.051758e-05
  0.00000000  0.34375000  0.28125000  3.051758e-05
  0.00000000  0.34375000  0.31250000  3.051758e-05
  0.00000000  0.34375000  0.34375000  3.051758e-05
  0.00000000  0.34375000  0.37500000  3.051758e-05
  0.00000000  0.34375000  0.40625000  3.051758e-05
  0.00000000  0.34375000  0.43750000  3.051758e-05
  0.00000000  0.34375000  0.46875000  3.051758e-05
  0.00000000  0.34375000  0.50000000  3.051758e-05
  0.00000000  0.34375000  0.53125000  3.051758e-05
  0.00000000  0.34375000  0.56250000  3.051758e-05
  0.00000000  0.34375000  0.59375000  3.051758e-05
  0.00000000  0.34375000  0.62500000  3.051758e-05
  0.00000000  0.34375000  0.65625000  3.051758e-05
  0.00000000  0.34375000  0.68750000  3.051758e-05
  0.00000000  0.34375000  0.71875000  3.051758e-05
  0.00000000  0.34375000  0.75000000  3.051758e-05
  0.00000000  0.34375000  0.78125000  3.051758e-05
  0.00000000  0.34375000  0.81250000  3.051758e-05
  0.00000000  0.34375000  0.84375000  3.051758e-05
  0.00000000  0.34375000  0.87500000  3.051758e-05
  0.00000000  0.34375000  0.90625000  3.051758e-05
  0.00000000  0.34375000  0.93750000  3.051758e-05
  0.00000000  0.34375000  0.96875000  3.051758e-05
  0.00000000  0.37500000  0.00000000  3.051758e-05
  0.00000000  0.37500000  0.03125000  3.051758e-05
  0.00000000  0.37500000  0.06250000  3.051758e-05
  0.00000000  0.37500000  0.09375000  3.051758e-05
  0.00000000  0.37500000  0.12500000  3.051758e-05
  0.00000000  0.37500000  0.15625000  3.051758e-05
  0.00000000  0.37500000  0.18750000  3.051758e-05
  0.00000000  0.37500000  0.21875000  3.051758e-05
  0.00000000  0.37500000  0.25000000  3.051758e-05
  0.00000000  0.37500000  0.28125000  3.051758e-05
  0.00000000  0.37500000  0.31250000  3.051758e-05
  0.00000000  0.37500000  0.34375000  3.051758e-05
  0.00000000  0.37500000  0.37500000  3.051758e-05
  0.00000000  0.37500000  0.40625000  3.051758e-05
  0.00000000  0.37500000  0.43750000  3.051758e-05
  0.00000000  0.37500000  0.46875000  3.051758e-05
  0.00000000  0.37500000  0.50000000  3.051758e-05
  0.00000000  0.37500000  0.53125000  3.051758e-05
  0.00000000  0.37500000  0.56250000  3.051758e-05
  0.00000000  0.37500000  0.59375000  3.051758e-05
  0.00000000  0.37500000  0.62500000  3.051758e-05
  0.00000000  0.37500000  0.65625000  3.051758e-05
  0.00000000  0.37500000  0.68750000  3.051758e-05
  0.00000000  0.37500000  0.71875000  3.051758e-05
  0.00000000  0.37500000  0.75000000  3.051758e-05
  0.00000000  0.37500000  0.78125000  3.051758e-05
  0.00000000  0.37500000  0.81250000  3.051758e-05
  0.00000000  0.37500000  0.84375000  3.051758e-05
  0.00000000  0.37500000  0.87500000  3.051758e-05
  0.00000000  0.37500000  0.90625000  3.051758e-05
  0.00000000  0.37500000  0.93750000  3.051758e-05
  0.00000000  0.37500000  0.96875000  3.051758e-05
  0.00000000  0.40625000  0.00000000  3.051758e-05
  0.00000000  0.40625000  0.03125000  3.051758e-05
  0.00000000  0.40625000  0.06250000  3.051758e-05
  0.00000000  0.40625000  0.09375000  3.051758e-05
  0.00000000  0.40625000  0.12500000  3.051758e-05
  0.00000000  0.40625000  0.15625000  3.051758e-05
  0.00000000  0.40625000  0.18750000  3.051758e-05
  0.00000000  0.40625000  0.21875000  3.051758e-05
  0.00000000  0.40625000  0.25000000  3.051758e-05
  0.00000000  0.40625000  0.28125000  3.051758e-05
  0.00000000  0.40625000  0.31250000  3.051758e-05
  0.00000000  0.40625000  0.34375000  3.051758e-05
  0.00000000  0.40625000  0.37500000  3.051758e-05
  0.00000000  0.40625000  0.40625000  3.051758e-05
  0.00000000  0.40625000  0.43750000  3.051758e-05
  0.00000000  0.40625000  0.46875000  3.051758e-05
  0.00000000  0.40625000  0.50000000  3.051758e-05
  0.00000000  0.40625000  0.53125000  3.051758e-05
  0.00000000  0.40625000  0.56250000  3.051758e-05
  0.00000000  0.40625000  0.59375000  3.051758e-05
  0.00000000  0.40625000  0.62500000  3.051758e-05
  0.00000000  0.40625000  0.65625000  3.051758e-05
  0.00000000  0.40625000  0.68750000  3.051758e-05
  0.00000000  0.40625000  0.71875000  3.051758e-05
  0.00000000  0.40625000  0.75000000  3.051758e-05
  0.00000000  0.40625000  0.78125000  3.051758e-05
  0.00000000  0.40625000  0.81250000  3.051758e-05
  0.00000000  0.40625000  0.84375000  3.051758e-05
  0.00000000  0.40625000  0.87500000  3.051758e-05
  0.00000000  0.40625000  0.90625000  3.051758e-05
  0.00000000  0.40625000  0.93750000  3.051758e-05
  0.00000000  0.40625000  0.96875000  3.051758e-05
  0.00000000  0.43750000  0.00000000  3.051758e-05
  0.00000000  0.43750000  0.03125000  3.051758e-05
  0.00000000  0.43750000  0.06250000  3.051758e-05
  0.00000000  0.43750000  0.09375000  3.051758e-05
  0.00000000  0.43750000  0.12500000  3.051758e-05
  0.00000000  0.43750000  0.15625000  3.051758e-05
  0.00000000  0.43750000  0.18750000  3.051758e-05
  0.00000000  0.43750000  0.21875000  3.051758e-05
  0.00000000  0.43750000  0.25000000  3.051758e-05
  0.00000000  0.43750000  0.28125000  3.051758e-05
  0.00000000  0.43750000  0.31250000  3.051758e-05
  0.00000000  0.43750000  0.34375000  3.051758e-05
  0.00000000  0.43750000  0.37500000  3.051758e-05
  0.00000000  0.43750000  0.40625000  3.051758e-05
  0.00000000  0.43750000  0.43750000  3.051758e-05
  0.00000000  0.43750000  0.46875000  3.051758e-05
  0.00000000  0.43750000  0.50000000  3.051758e-05
  0.00000000  0.43750000  0.53125000  3.051758e-05
  0.00000000  0.43750000  0.56250000  3.051758e-05
  0.00000000  0.43750000  0.59375000  3.051758e-05
  0.00000000  0.43750000  0.62500000  3.051758e-05
  0.00000000  0.43750000  0.65625000  3.051758e-05
  0.00000000  0.43750000  0.68750000  3.051758e-05
  0.00000000  0.43750000  0.71875000  3.051758e-05
  0.00000000  0.43750000  0.75000000  3.051758e-05
  0.00000000  0.43750000  0.78125000  3.051758e-05
  0.00000000  0.43750000  0.81250000  3.051758e-05
  0.00000000  0.43750000  0.84375000  3.051758e-05
  0.00000000  0.43750000  0.87500000  3.051758e-05
  0.00000000  0.43750000  0.90625000  3.051758e-05
  0.00000000  0.43750000  0.93750000  3.051758e-05
  0.00000000  0.43750000  0.96875000  3.051758e-05
  0.00000000  0.46875000  0.00000000  3.051758e-05
  0.00000000  0.46875000  0.03125000  3.051758e-05
  0.00000000  0.46875000  0.06250000  3.051758e-05
  0.00000000  0.46875000  0.09375000  3.051758e-05
  0.00000000  0.46875000  0.12500000  3.051758e-05
  0.00000000  0.46875000  0.15625000  3.051758e-05
  0.00000000  0.46875000  0.18750000  3.051758e-05
  0.00000000  0.46875000  0.21875000  3.051758e-05
  0.00000000  0.46875000  0.25000000  3.051758e-05
  0.00000000  0.46875000  0.28125000  3.051758e-05
  0.00000000  0.46875000  0.31250000  3.051758e-05
  0.00000000  0.46875000  0.34375000  3.051758e-05
  0.00000000  0.46875000  0.37500000  3.051758e-05
  0.00000000  0.46875000  0.40625000  3.051758e-05
  0.00000000  0.46875000  0.43750000  3.051758e-05
  0.00000000  0.46875000  0.46875000  3.051758e-05
  0.00000000  0.46875000  0.50000000  3.051758e-05
  0.00000000  0.46875000  0.53125000  3.051758e-05
  0.00000000  0.46875000  0.56250000  3.051758e-05
  0.00000000  0.46875000  0.59375000  3.051758e-05
  0.00000000  0.46875000  0.62500000  3.051758e-05
  0.00000000  0.46875000  0.65625000  3.051758e-05
  0.00000000  0.46875000  0.68750000  3.051758e-05
  0.00000000  0.46875000  0.71875000  3.051758e-05
  0.00000000  0.46875000  0.75000000  3.051758e-05
  0.00000000  0.46875000  0.78125000  3.051758e-05
  0.00000000  0.46875000  0.81250000  3.051758e-05
  0.00000000  0.46875000  0.84375000  3.051758e-05
  0.00000000  0.46875000  0.87500000  3.051758e-05
  0.00000000  0.46875000  0.90625000  3.051758e-05
  0.00000000  0.46875000  0.93750000  3.051758e-05
  0.00000000  0.46875000  0.96875000  3.051758e-05
  0.00000000  0.50000000  0.00000000  3.051758e-05
  0.00000000  0.50000000  0.03125000  3.051758e-05
  0.00000000  0.50000000  0.06250000  3.051758e-05
  0.00000000  0.50000000  0.09375000  3.051758e-05
  0.00000000  0.50000000  0.12500000  3.051758e-05
  0.00000000  0.50000000  0.15625000  3.051758e-05
  0.00000000  0.50000000  0.18750000  3.051758e-05
  0.00000000  0.50000000  0.21875000  3.051758e-05
  0.00000000  0.50000000  0.25000000  3.051758e-05
  0.00000000  0.50000000  0.28125000  3.051758e-05
  0.00000000  0.50000000  0.31250000  3.051758e-05
  0.00000000  0.50000000  0.34375000  3.051758e-05
  0.00000000  0.50000000  0.37500000  3.051758e-05
  0.00000000  0.50000000  0.40625000  3.051758e-05
  0.00000000  0.50000000  0.43750000  3.051758e-05
  0.00000000  0.50000000  0.46875000  3.051758e-05
  0.00000000  0.50000000  0.50000000  3.051758e-05
  0.00000000  0.50000000  0.53125000  3.051758e-05
  0.00000000  0.50000000  0.56250000  3.051758e-05
  0.00000000  0.50000000  0.59375000  3.051758e-05
  0.00000000  0.50000000  0.62500000  3.051758e-05
  0.00000000  0.50000000  0.65625000  3.051758e-05
  0.00000000  0.50000000  0.68750000  3.051758e-05
  0.00000000  0.50000000  0.71875000  3.051758e-05
  0.00000000  0.50000000  0.75000000  3.051758e-05
  0.00000000  0.50000000  0.78125000  3.051758e-05
  0.00000000  0.50000000  0.81250000  3.051758e-05
  0.00000000  0.50000000  0.84375000  3.051758e-05
  0.00000000  0.50000000  0.87500000  3.051758e-05
  0.00000000  0.50000000  0.90625000  3.051758e-05
  0.00000000  0.50000000  0.93750000  3.051758e-05
  0.00000000  0.50000000  0.96875000  3.051758e-05
  0.00000000  0.53125000  0.00000000  3.051758e-05
  0.00000000  0.53125000  0.03125000  3.051758e-05
  0.00000000  0.53125000  0.06250000  3.051758e-05
  0.00000000  0.53125000  0.09375000  3.051758e-05
  0.00000000  0.53125000  0.12500000  3.051758e-05
  0.00000000  0.53125000  0.15625000  3.051758e-05
  0.00000000  0.53125000  0.18750000  3.051758e-05
  0.00000000  0.53125000  0.21875000  3.051758e-05
  0.00000000  0.53125000  0.25000000  3.051758e-05
  0.00000000  0.53125000  0.28125000  3.051758e-05
  0.00000000  0.53125000  0.31250000  3.051758e-05
  0.00000000  0.53125000  0.34375000  3.051758e-05
  0.00000000  0.53125000  0.37500000  3.051758e-05
  0.00000000  0.53125000  0.40625000  3.051758e-05
  0.00000000  0.53125000  0.43750000  3.051758e-05
  0.00000000  0.53125000  0.46875000  3.051758e-05
  0.00000000  0.53125000  0.50000000  3.051758e-05
  0.00000000  0.53125000  0.53125000  3.051758e-05
  0.00000000  0.53125000  0.56250000  3.051758e-05