&CONTROL
	calculation = "nscf"
	pseudo_dir  = "~/pseudos"
	outdir="./outdir"
	prefix="Li"
/

&SYSTEM
    a           =  3.42682e+00
    degauss     =  1.00000e-02
    ecutrho     =  9.22608e+02
    ecutwfc     =  1.02512e+02
    ibrav       = 3
    nat         = 1
    nbnd        = 6
    ntyp        = 1
    occupations = "smearing"
    smearing    = "gaussian"
/

&ELECTRONS
    conv_thr         =  1.00000e-06
    mixing_beta      =  7.00000e-01
/

ATOMIC_SPECIES
Li      6.94100  li_pbe_v1.4.uspp.F.UPF

ATOMIC_POSITIONS {angstrom}
Li      0.000000   0.000000   0.000000

K_POINTS crystal
32768
  0.00000000  0.00000000  0.00000000  3.051758e-05
  0.00000000  0.00000000  0.03125000  3.051758e-05
  0.00000000  0.00000000  0.06250000  3.051758e-05
  0.00000000  0.00000000  0.09375000  3.051758e-05
  0.00000000  0.00000000  0.12500000  3.051758e-05
  0.00000000  0.00000000  0.15625000  3.051758e-05
  0.00000000  0.00000000  0.18750000  3.051758e-05
  0.00000000  0.00000000  0.21875000  3.051758e-05
  0.00000000  0.00000000  0.25000000  3.051758e-05
  0.00000000  0.00000000  0.28125000  3.051758e-05
  0.00000000  0.00000000  0.31250000  3.051758e-05
  0.00000000  0.00000000  0.34375000  3.051758e-05
  0.00000000  0.00000000  0.37500000  3.051758e-05
  0.00000000  0.00000000  0.40625000  3.051758e-05
  0.00000000  0.00000000  0.43750000  3.051758e-05
  0.00000000  0.00000000  0.46875000  3.051758e-05
  0.00000000  0.00000000  0.50000000  3.051758e-05
  0.00000000  0.00000000  0.53125000  3.051758e-05
  0.00000000  0.00000000  0.56250000  3.051758e-05
  0.00000000  0.00000000  0.59375000  3.051758e-05
  0.00000000  0.00000000  0.62500000  3.051758e-05
  0.00000000  0.00000000  0.65625000  3.051758e-05
  0.00000000  0.00000000  0.68750000  3.051758e-05
  0.00000000  0.00000000  0.71875000  3.051758e-05
  0.00000000  0.00000000  0.75000000  3.051758e-05
  0.00000000  0.00000000  0.78125000  3.051758e-05
  0.00000000  0.00000000  0.81250000  3.051758e-05
  0.00000000  0.00000000  0.84375000  3.051758e-05
  0.00000000  0.00000000  0.87500000  3.051758e-05
  0.00000000  0.00000000  0.90625000  3.051758e-05
  0.00000000  0.00000000  0.93750000  3.051758e-05
  0.00000000  0.00000000  0.96875000  3.051758e-05
  0.00000000  0.03125000  0.00000000  3.051758e-05
  0.00000000  0.03125000  0.03125000  3.051758e-05
  0.00000000  0.03125000  0.06250000  3.051758e-05
  0.00000000  0.03125000  0.09375000  3.051758e-05
  0.00000000  0.03125000  0.12500000  3.051758e-05
  0.00000000  0.03125000  0.15625000  3.051758e-05
  0.00000000  0.03125000  0.18750000  3.051758e-05
  0.00000000  0.03125000  0.21875000  3.051758e-05
  0.00000000  0.03125000  0.25000000  3.051758e-05
  0.00000000  0.03125000  0.28125000  3.051758e-05
  0.00000000  0.03125000  0.31250000  3.051758e-05
  0.00000000  0.03125000  0.34375000  3.051758e-05
  0.00000000  0.03125000  0.37500000  3.051758e-05
  0.00000000  0.03125000  0.40625000  3.051758e-05
  0.00000000  0.03125000  0.43750000  3.051758e-05
  0.00000000  0.03125000  0.46875000  3.051758e-05
  0.00000000  0.03125000  0.50000000  3.051758e-05
  0.00000000  0.03125000  0.53125000  3.051758e-05
  0.00000000  0.03125000  0.56250000  3.051758e-05
  0.00000000  0.03125000  0.59375000  3.051758e-05
  0.00000000  0.03125000  0.62500000  3.051758e-05
  0.00000000  0.03125000  0.65625000  3.051758e-05
  0.00000000  0.03125000  0.68750000  3.051758e-05
  0.00000000  0.03125000  0.71875000  3.051758e-05
  0.00000000  0.03125000  0.75000000  3.051758e-05
  0.00000000  0.03125000  0.78125000  3.051758e-05
  0.00000000  0.03125000  0.81250000  3.051758e-05
  0.00000000  0.03125000  0.84375000  3.051758e-05
  0.00000000  0.03125000  0.87500000  3.051758e-05
  0.00000000  0.03125000  0.90625000  3.051758e-05
  0.00000000  0.03125000  0.93750000  3.051758e-05
  0.00000000  0.03125000  0.96875000  3.051758e-05
  0.00000000  0.06250000  0.00000000  3.051758e-05
  0.00000000  0.06250000  0.03125000  3.051758e-05
  0.00000000  0.06250000  0.06250000  3.051758e-05
  0.00000000  0.06250000  0.09375000  3.051758e-05
  0.00000000  0.06250000  0.12500000  3.051758e-05
  0.00000000  0.06250000  0.15625000  3.051758e-05
  0.00000000  0.06250000  0.18750000  3.051758e-05
  0.00000000  0.06250000  0.21875000  3.051758e-05
  0.00000000  0.06250000  0.25000000  3.051758e-05
  0.00000000  0.06250000  0.28125000  3.051758e-05
  0.00000000  0.06250000  0.31250000  3.051758e-05
  0.00000000  0.06250000  0.34375000  3.051758e-05
  0.00000000  0.06250000  0.37500000  3.051758e-05
  0.00000000  0.06250000  0.40625000  3.051758e-05
  0.00000000  0.06250000  0.43750000  3.051758e-05
  0.00000000  0.06250000  0.46875000  3.051758e-05
  0.00000000  0.06250000  0.50000000  3.051758e-05
  0.00000000  0.06250000  0.53125000  3.051758e-05
  0.00000000  0.06250000  0.56250000  3.051758e-05
  0.00000000  0.06250000  0.59375000  3.051758e-05
  0.00000000  0.06250000  0.62500000  3.051758e-05
  0.00000000  0.06250000  0.65625000  3.051758e-05
  0.00000000  0.06250000  0.68750000  3.051758e-05
  0.00000000  0.06250000  0.71875000  3.051758e-05
  0.00000000  0.06250000  0.75000000  3.051758e-05
  0.00000000  0.06250000  0.78125000  3.051758e-05
  0.00000000  0.06250000  0.81250000  3.051758e-05
  0.00000000  0.06250000  0.84375000  3.051758e-05
  0.00000000  0.06250000  0.87500000  3.051758e-05
  0.00000000  0.06250000  0.90625000  3.051758e-05
  0.00000000  0.06250000  0.93750000  3.051758e-05
  0.00000000  0.06250000  0.96875000  3.051758e-05
  0.00000000  0.09375000  0.00000000  3.051758e-05
  0.00000000  0.09375000  0.03125000  3.051758e-05
  0.00000000  0.09375000  0.06250000  3.051758e-05
  0.00000000  0.09375000  0.09375000  3.051758e-05
  0.00000000  0.09375000  0.12500000  3.051758e-05
  0.00000000  0.09375000  0.15625000  3.051758e-05
  0.00000000  0.09375000  0.18750000  3.051758e-05
  0.00000000  0.09375000  0.21875000  3.051758e-05
  0.00000000  0.09375000  0.25000000  3.051758e-05
  0.00000000  0.09375000  0.28125000  3.051758e-05
  0.00000000  0.09375000  0.31250000  3.051758e-05
  0.00000000  0.09375000  0.34375000  3.051758e-05
  0.00000000  0.09375000  0.37500000  3.051758e-05
  0.00000000  0.09375000  0.40625000  3.051758e-05
  0.00000000  0.09375000  0.43750000  3.051758e-05
  0.00000000  0.09375000  0.46875000  3.051758e-05
  0.00000000  0.09375000  0.50000000  3.051758e-05
  0.00000000  0.09375000  0.53125000  3.051758e-05
  0.00000000  0.09375000  0.56250000  3.051758e-05
  0.00000000  0.09375000  0.59375000  3.051758e-05
  0.00000000  0.09375000  0.62500000  3.051758e-05
  0.00000000  0.09375000  0.65625000  3.051758e-05
  0.00000000  0.09375000  0.68750000  3.051758e-05
  0.00000000  0.09375000  0.71875000  3.051758e-05
  0.00000000  0.09375000  0.75000000  3.051758e-05
  0.00000000  0.09375000  0.78125000  3.051758e-05
  0.00000000  0.09375000  0.81250000  3.051758e-05
  0.00000000  0.09375000  0.84375000  3.051758e-05
  0.00000000  0.09375000  0.87500000  3.051758e-05
  0.00000000  0.09375000  0.90625000  3.051758e-05
  0.00000000  0.09375000  0.93750000  3.051758e-05
  0.00000000  0.09375000  0.96875000  3.051758e-05
  0.00000000  0.12500000  0.00000000  3.051758e-05
  0.00000000  0.12500000  0.03125000  3.051758e-05
  0.00000000  0.12500000  0.06250000  3.051758e-05
  0.00000000  0.12500000  0.09375000  3.051758e-05
  0.00000000  0.12500000  0.12500000  3.051758e-05
  0.00000000  0.12500000  0.15625000  3.051758e-05
  0.00000000  0.12500000  0.18750000  3.051758e-05
  0.00000000  0.12500000  0.21875000  3.051758e-05
  0.00000000  0.12500000  0.25000000  3.051758e-05
  0.00000000  0.12500000  0.28125000  3.051758e-05
  0.00000000  0.12500000  0.31250000  3.051758e-05
  0.00000000  0.12500000  0.34375000  3.051758e-05
  0.00000000  0.12500000  0.37500000  3.051758e-05
  0.00000000  0.12500000  0.40625000  3.051758e-05
  0.00000000  0.12500000  0.43750000  3.051758e-05
  0.00000000  0.12500000  0.46875000  3.051758e-05
  0.00000000  0.12500000  0.50000000  3.051758e-05
  0.00000000  0.12500000  0.53125000  3.051758e-05
  0.00000000  0.12500000  0.56250000  3.051758e-05
  0.00000000  0.12500000  0.59375000  3.051758e-05
  0.00000000  0.12500000  0.62500000  3.051758e-05
  0.00000000  0.12500000  0.65625000  3.051758e-05
  0.00000000  0.12500000  0.68750000  3.051758e-05
  0.00000000  0.12500000  0.71875000  3.051758e-05
  0.00000000  0.12500000  0.75000000  3.051758e-05
  0.00000000  0.12500000  0.78125000  3.051758e-05
  0.00000000  0.12500000  0.81250000  3.051758e-05
  0.00000000  0.12500000  0.84375000  3.051758e-05
  0.00000000  0.12500000  0.87500000  3.051758e-05
  0.00000000  0.12500000  0.90625000  3.051758e-05
  0.00000000  0.12500000  0.93750000  3.051758e-05
  0.00000000  0.12500000  0.96875000  3.051758e-05
  0.00000000  0.15625000  0.00000000  3.051758e-05
  0.00000000  0.15625000  0.03125000  3.051758e-05
  0.00000000  0.15625000  0.06250000  3.051758e-05
  0.00000000  0.15625000  0.09375000  3.051758e-05
  0.00000000  0.15625000  0.12500000  3.051758e-05
  0.00000000  0.15625000  0.15625000  3.051758e-05
  0.00000000  0.15625000  0.18750000  3.051758e-05
  0.00000000  0.15625000  0.21875000  3.051758e-05
  0.00000000  0.15625000  0.25000000  3.051758e-05
  0.00000000  0.15625000  0.28125000  3.051758e-05
  0.00000000  0.15625000  0.31250000  3.051758e-05
  0.00000000  0.15625000  0.34375000  3.051758e-05
  0.00000000  0.15625000  0.37500000  3.051758e-05
  0.00000000  0.15625000  0.40625000  3.051758e-05
  0.00000000  0.15625000  0.43750000  3.051758e-05
  0.00000000  0.15625000  0.46875000  3.051758e-05
  0.00000000  0.15625000  0.50000000  3.051758e-05
  0.00000000  0.15625000  0.53125000  3.051758e-05
  0.00000000  0.15625000  0.56250000  3.051758e-05
  0.00000000  0.15625000  0.59375000  3.051758e-05
  0.00000000  0.15625000  0.62500000  3.051758e-05
  0.00000000  0.15625000  0.65625000  3.051758e-05
  0.00000000  0.15625000  0.68750000  3.051758e-05
  0.00000000  0.15625000  0.71875000  3.051758e-05
  0.00000000  0.15625000  0.75000000  3.051758e-05
  0.00000000  0.15625000  0.78125000  3.051758e-05
  0.00000000  0.15625000  0.81250000  3.051758e-05
  0.00000000  0.15625000  0.84375000  3.051758e-05
  0.00000000  0.15625000  0.87500000  3.051758e-05
  0.00000000  0.15625000  0.90625000  3.051758e-05
  0.00000000  0.15625000  0.93750000  3.051758e-05
  0.00000000  0.15625000  0.96875000  3.051758e-05
  0.00000000  0.18750000  0.00000000  3.051758e-05
  0.00000000  0.18750000  0.03125000  3.051758e-05
  0.00000000  0.18750000  0.06250000  3.051758e-05
  0.00000000  0.18750000  0.09375000  3.051758e-05
  0.00000000  0.18750000  0.12500000  3.051758e-05
  0.00000000  0.18750000  0.15625000  3.051758e-05
  0.00000000  0.18750000  0.18750000  3.051758e-05
  0.00000000  0.18750000  0.21875000  3.051758e-05
  0.00000000  0.18750000  0.25000000  3.051758e-05
  0.00000000  0.18750000  0.28125000  3.051758e-05
  0.00000000  0.18750000  0.31250000  3.051758e-05
  0.00000000  0.18750000  0.34375000  3.051758e-05
  0.00000000  0.18750000  0.37500000  3.051758e-05
  0.00000000  0.18750000  0.40625000  3.051758e-05
  0.00000000  0.18750000  0.43750000  3.051758e-05
  0.00000000  0.18750000  0.46875000  3.051758e-05
  0.00000000  0.18750000  0.50000000  3.051758e-05
  0.00000000  0.18750000  0.53125000  3.051758e-05
  0.00000000  0.18750000  0.56250000  3.051758e-05
  0.00000000  0.18750000  0.59375000  3.051758e-05
  0.00000000  0.18750000  0.62500000  3.051758e-05
  0.00000000  0.18750000  0.65625000  3.051758e-05
  0.00000000  0.18750000  0.68750000  3.051758e-05
  0.00000000  0.18750000  0.71875000  3.051758e-05
  0.00000000  0.18750000  0.75000000  3.051758e-05
  0.00000000  0.18750000  0.78125000  3.051758e-05
  0.00000000  0.18750000  0.81250000  3.051758e-05
  0.00000000  0.18750000  0.84375000  3.051758e-05
  0.00000000  0.18750000  0.87500000  3.051758e-05
  0.00000000  0.18750000  0.90625000  3.051758e-05
  0.00000000  0.18750000  0.93750000  3.051758e-05
  0.00000000  0.18750000  0.96875000  3.051758e-05
  0.00000000  0.21875000  0.00000000  3.051758e-05
  0.00000000  0.21875000  0.03125000  3.051758e-05
  0.00000000  0.21875000  0.06250000  3.051758e-05
  0.00000000  0.21875000  0.09375000  3.051758e-05
  0.00000000  0.21875000  0.12500000  3.051758e-05
  0.00000000  0.21875000  0.15625000  3.051758e-05
  0.00000000  0.21875000  0.18750000  3.051758e-05
  0.00000000  0.21875000  0.21875000  3.051758e-05
  0.00000000  0.21875000  0.25000000  3.051758e-05
  0.00000000  0.21875000  0.28125000  3.051758e-05
  0.00000000  0.21875000  0.31250000  3.051758e-05
  0.00000000  0.21875000  0.34375000  3.051758e-05
  0.00000000  0.21875000  0.37500000  3.051758e-05
  0.00000000  0.21875000  0.40625000  3.051758e-05
  0.00000000  0.21875000  0.43750000  3.051758e-05
  0.00000000  0.21875000  0.46875000  3.051758e-05
  0.00000000  0.21875000  0.50000000  3.051758e-05
  0.00000000  0.21875000  0.53125000  3.051758e-05
  0.00000000  0.21875000  0.56250000  3.051758e-05
  0.00000000  0.21875000  0.59375000  3.051758e-05
  0.00000000  0.21875000  0.62500000  3.051758e-05
  0.00000000  0.21875000  0.65625000  3.051758e-05
  0.00000000  0.21875000  0.68750000  3.051758e-05
  0.00000000  0.21875000  0.71875000  3.051758e-05
  0.00000000  0.21875000  0.75000000  3.051758e-05
  0.00000000  0.21875000  0.78125000  3.051758e-05
  0.00000000  0.21875000  0.81250000  3.051758e-05
  0.00000000  0.21875000  0.84375000  3.051758e-05
  0.00000000  0.21875000  0.87500000  3.051758e-05
  0.00000000  0.21875000  0.90625000  3.051758e-05
  0.00000000  0.21875000  0.93750000  3.051758e-05
  0.00000000  0.21875000  0.96875000  3.051758e-05
  0.00000000  0.25000000  0.00000000  3.051758e-05
  0.00000000  0.25000000  0.03125000  3.051758e-05
  0.00000000  0.25000000  0.06250000  3.051758e-05
  0.00000000  0.25000000  0.09375000  3.051758e-05
  0.00000000  0.25000000  0.12500000  3.051758e-05
  0.00000000  0.25000000  0.15625000  3.051758e-05
  0.00000000  0.25000000  0.18750000  3.051758e-05
  0.00000000  0.25000000  0.21875000  3.051758e-05
  0.00000000  0.25000000  0.25000000  3.051758e-05
  0.00000000  0.25000000  0.28125000  3.051758e-05
  0.00000000  0.25000000  0.31250000  3.051758e-05
  0.00000000  0.25000000  0.34375000  3.051758e-05
  0.00000000  0.25000000  0.37500000  3.051758e-05
  0.00000000  0.25000000  0.40625000  3.051758e-05
  0.00000000  0.25000000  0.43750000  3.051758e-05
  0.00000000  0.25000000  0.46875000  3.051758e-05
  0.00000000  0.25000000  0.50000000  3.051758e-05
  0.00000000  0.25000000  0.53125000  3.051758e-05
  0.00000000  0.25000000  0.56250000  3.051758e-05
  0.00000000  0.25000000  0.59375000  3.051758e-05
  0.00000000  0.25000000  0.62500000  3.051758e-05
  0.00000000  0.25000000  0.65625000  3.051758e-05
  0.00000000  0.25000000  0.68750000  3.051758e-05
  0.00000000  0.25000000  0.71875000  3.051758e-05
  0.00000000  0.25000000  0.75000000  3.051758e-05
  0.00000000  0.25000000  0.78125000  3.051758e-05
  0.00000000  0.25000000  0.81250000  3.051758e-05
  0.00000000  0.25000000  0.84375000  3.051758e-05
  0.00000000  0.25000000  0.87500000  3.051758e-05
  0.00000000  0.25000000  0.90625000  3.051758e-05
  0.00000000  0.25000000  0.93750000  3.051758e-05
  0.00000000  0.25000000  0.96875000  3.051758e-05
  0.00000000  0.28125000  0.00000000  3.051758e-05
  0.00000000  0.28125000  0.03125000  3.051758e-05
  0.00000000  0.28125000  0.06250000  3.051758e-05
  0.00000000  0.28125000  0.09375000  3.051758e-05
  0.00000000  0.28125000  0.12500000  3.051758e-05
  0.00000000  0.28125000  0.15625000  3.051758e-05
  0.00000000  0.28125000  0.18750000  3.051758e-05
  0.00000000  0.28125000  0.21875000  3.051758e-05
  0.00000000  0.28125000  0.25000000  3.051758e-05
  0.00000000  0.28125000  0.28125000  3.051758e-05
  0.00000000  0.28125000  0.31250000  3.051758e-05
  0.00000000  0.28125000  0.34375000  3.051758e-05
  0.00000000  0.28125000  0.37500000  3.051758e-05
  0.00000000  0.28125000  0.40625000  3.051758e-05
  0.00000000  0.28125000  0.43750000  3.051758e-05
  0.00000000  0.28125000  0.46875000  3.051758e-05
  0.00000000  0.28125000  0.50000000  3.051758e-05
  0.00000000  0.28125000  0.53125000  3.051758e-05
  0.00000000  0.28125000  0.56250000  3.051758e-05
  0.00000000  0.28125000  0.59375000  3.051758e-05
  0.00000000  0.28125000  0.62500000  3.051758e-05
  0.00000000  0.28125000  0.65625000  3.051758e-05
  0.00000000  0.28125000  0.68750000  3.051758e-05
  0.00000000  0.28125000  0.71875000  3.051758e-05
  0.00000000  0.28125000  0.75000000  3.051758e-05
  0.00000000  0.28125000  0.78125000  3.051758e-05
  0.00000000  0.28125000  0.81250000  3.051758e-05
  0.00000000  0.28125000  0.84375000  3.051758e-05
  0.00000000  0.28125000  0.87500000  3.051758e-05
  0.00000000  0.28125000  0.90625000  3.051758e-05
  0.00000000  0.28125000  0.93750000  3.051758e-05
  0.00000000  0.28125000  0.96875000  3.051758e-05
  0.00000000  0.31250000  0.00000000  3.051758e-05
  0.00000000  0.31250000  0.03125000  3.051758e-05
  0.00000000  0.31250000  0.06250000  3.051758e-05
  0.00000000  0.31250000  0.09375000  3.051758e-05
  0.00000000  0.31250000  0.12500000  3.051758e-05
  0.00000000  0.31250000  0.15625000  3.051758e-05
  0.00000000  0.31250000  0.18750000  3.051758e-05
  0.00000000  0.31250000  0.21875000  3.051758e-05
  0.00000000  0.31250000  0.25000000  3.051758e-05
  0.00000000  0.31250000  0.28125000  3.051758e-05
  0.00000000  0.31250000  0.31250000  3.051758e-05
  0.00000000  0.31250000  0.34375000  3.051758e-05
  0.00000000  0.31250000  0.37500000  3.051758e-05
  0.00000000  0.31250000  0.40625000  3.051758e-05
  0.00000000  0.31250000  0.43750000  3.051758e-05
  0.00000000  0.31250000  0.46875000  3.051758e-05
  0.00000000  0.31250000  0.50000000  3.051758e-05
  0.00000000  0.31250000  0.53125000  3.051758e-05
  0.00000000  0.31250000  0.56250000  3.051758e-05
  0.00000000  0.31250000  0.59375000  3.051758e-05
  0.00000000  0.31250000  0.62500000  3.051758e-05
  0.00000000  0.31250000  0.65625000  3.051758e-05
  0.00000000  0.31250000  0.68750000  3.051758e-05
  0.00000000  0.31250000  0.71875000  3.051758e-05
  0.00000000  0.31250000  0.75000000  3.051758e-05
  0.00000000  0.31250000  0.78125000  3.051758e-05
  0.00000000  0.31250000  0.81250000  3.051758e-05
  0.00000000  0.31250000  0.84375000  3.051758e-05
  0.00000000  0.31250000  0.87500000  3.051758e-05
  0.00000000  0.31250000  0.90625000  3.051758e-05
  0.00000000  0.31250000  0.93750000  3.051758e-05
  0.00000000  0.31250000  0.96875000  3.051758e-05
  0.00000000  0.34375000  0.00000000  3.051758e-05
  0.00000000  0.34375000  0.03125000  3.051758e-05
  0.00000000  0.34375000  0.06250000  3.051758e-05
  0.00000000  0.34375000  0.09375000  3.051758e-05
  0.00000000  0.34375000  0.12500000  3.051758e-05
  0.00000000  0.34375000  0.15625000  3.051758e-05
  0.00000000  0.34375000  0.18750000  3.051758e-05
  0.00000000  0.34375000  0.21875000  3.051758e-05
  0.00000000  0.34375000  0.25000000  3.051758e-05
  0.00000000  0.34375000  0.28125000  3.051758e-05
  0.00000000  0.34375000  0.31250000  3.051758e-05
  0.00000000  0.34375000  0.34375000  3.051758e-05
  0.00000000  0.34375000  0.37500000  3.051758e-05
  0.00000000  0.34375000  0.40625000  3.051758e-05
  0.00000000  0.34375000  0.43750000  3.051758e-05
  0.00000000  0.34375000  0.46875000  3.051758e-05
  0.00000000  0.34375000  0.50000000  3.051758e-05
  0.00000000  0.34375000  0.53125000  3.051758e-05
  0.00000000  0.34375000  0.56250000  3.051758e-05
  0.00000000  0.34375000  0.59375000  3.051758e-05
  0.00000000  0.34375000  0.62500000  3.051758e-05
  0.00000000  0.34375000  0.65625000  3.051758e-05
  0.00000000  0.34375000  0.68750000  3.051758e-05
  0.00000000  0.34375000  0.71875000  3.051758e-05
  0.00000000  0.34375000  0.75000000  3.051758e-05
  0.00000000  0.34375000  0.78125000  3.051758e-05
  0.00000000  0.34375000  0.81250000  3.051758e-05
  0.00000000  0.34375000  0.84375000  3.051758e-05
  0.00000000  0.34375000  0.87500000  3.051758e-05
  0.00000000  0.34375000  0.90625000  3.051758e-05
  0.00000000  0.34375000  0.93750000  3.051758e-05
  0.00000000  0.34375000  0.96875000  3.051758e-05
  0.00000000  0.37500000  0.00000000  3.051758e-05
  0.00000000  0.37500000  0.03125000  3.051758e-05
  0.00000000  0.37500000  0.06250000  3.051758e-05
  0.00000000  0.37500000  0.09375000  3.051758e-05
  0.00000000  0.37500000  0.12500000  3.051758e-05
  0.00000000  0.37500000  0.15625000  3.051758e-05
  0.00000000  0.37500000  0.18750000  3.051758e-05
  0.00000000  0.37500000  0.21875000  3.051758e-05
  0.00000000  0.37500000  0.25000000  3.051758e-05
  0.00000000  0.37500000  0.28125000  3.051758e-05
  0.00000000  0.37500000  0.31250000  3.051758e-05
  0.00000000  0.37500000  0.34375000  3.051758e-05
  0.00000000  0.37500000  0.37500000  3.051758e-05
  0.00000000  0.37500000  0.40625000  3.051758e-05
  0.00000000  0.37500000  0.43750000  3.051758e-05
  0.00000000  0.37500000  0.46875000  3.051758e-05
  0.00000000  0.37500000  0.50000000  3.051758e-05
  0.00000000  0.37500000  0.53125000  3.051758e-05
  0.00000000  0.37500000  0.56250000  3.051758e-05
  0.00000000  0.37500000  0.59375000  3.051758e-05
  0.00000000  0.37500000  0.62500000  3.051758e-05
  0.00000000  0.37500000  0.65625000  3.051758e-05
  0.00000000  0.37500000  0.68750000  3.051758e-05
  0.00000000  0.37500000  0.71875000  3.051758e-05
  0.00000000  0.37500000  0.75000000  3.051758e-05
  0.00000000  0.37500000  0.78125000  3.051758e-05
  0.00000000  0.37500000  0.81250000  3.051758e-05
  0.00000000  0.37500000  0.84375000  3.051758e-05
  0.00000000  0.37500000  0.87500000  3.051758e-05
  0.00000000  0.37500000  0.90625000  3.051758e-05
  0.00000000  0.37500000  0.93750000  3.051758e-05
  0.00000000  0.37500000  0.96875000  3.051758e-05
  0.00000000  0.40625000  0.00000000  3.051758e-05
  0.00000000  0.40625000  0.03125000  3.051758e-05
  0.00000000  0.40625000  0.06250000  3.051758e-05
  0.00000000  0.40625000  0.09375000  3.051758e-05
  0.00000000  0.40625000  0.12500000  3.051758e-05
  0.00000000  0.40625000  0.15625000  3.051758e-05
  0.00000000  0.40625000  0.18750000  3.051758e-05
  0.00000000  0.40625000  0.21875000  3.051758e-05
  0.00000000  0.40625000  0.25000000  3.051758e-05
  0.00000000  0.40625000  0.28125000  3.051758e-05
  0.00000000  0.40625000  0.31250000  3.051758e-05
  0.00000000  0.40625000  0.34375000  3.051758e-05
  0.00000000  0.40625000  0.37500000  3.051758e-05
  0.00000000  0.40625000  0.40625000  3.051758e-05
  0.00000000  0.40625000  0.43750000  3.051758e-05
  0.00000000  0.40625000  0.46875000  3.051758e-05
  0.00000000  0.40625000  0.50000000  3.051758e-05
  0.00000000  0.40625000  0.53125000  3.051758e-05
  0.00000000  0.40625000  0.56250000  3.051758e-05
  0.00000000  0.40625000  0.59375000  3.051758e-05
  0.00000000  0.40625000  0.62500000  3.051758e-05
  0.00000000  0.40625000  0.65625000  3.051758e-05
  0.00000000  0.40625000  0.68750000  3.051758e-05
  0.00000000  0.40625000  0.71875000  3.051758e-05
  0.00000000  0.40625000  0.75000000  3.051758e-05
  0.00000000  0.40625000  0.78125000  3.051758e-05
  0.00000000  0.40625000  0.81250000  3.051758e-05
  0.00000000  0.40625000  0.84375000  3.051758e-05
  0.00000000  0.40625000  0.87500000  3.051758e-05
  0.00000000  0.40625000  0.90625000  3.051758e-05
  0.00000000  0.40625000  0.93750000  3.051758e-05
  0.00000000  0.40625000  0.96875000  3.051758e-05
  0.00000000  0.43750000  0.00000000  3.051758e-05
  0.00000000  0.43750000  0.03125000  3.051758e-05
  0.00000000  0.43750000  0.06250000  3.051758e-05
  0.00000000  0.43750000  0.09375000  3.051758e-05
  0.00000000  0.43750000  0.12500000  3.051758e-05
  0.00000000  0.43750000  0.15625000  3.051758e-05
  0.00000000  0.43750000  0.18750000  3.051758e-05
  0.00000000  0.43750000  0.21875000  3.051758e-05
  0.00000000  0.43750000  0.25000000  3.051758e-05
  0.00000000  0.43750000  0.28125000  3.051758e-05
  0.00000000  0.43750000  0.31250000  3.051758e-05
  0.00000000  0.43750000  0.34375000  3.051758e-05
  0.00000000  0.43750000  0.37500000  3.051758e-05
  0.00000000  0.43750000  0.40625000  3.051758e-05
  0.00000000  0.43750000  0.43750000  3.051758e-05
  0.00000000  0.43750000  0.46875000  3.051758e-05
  0.00000000  0.43750000  0.50000000  3.051758e-05
  0.00000000  0.43750000  0.53125000  3.051758e-05
  0.00000000  0.43750000  0.56250000  3.051758e-05
  0.00000000  0.43750000  0.59375000  3.051758e-05
  0.00000000  0.43750000  0.62500000  3.051758e-05
  0.00000000  0.43750000  0.65625000  3.051758e-05
  0.00000000  0.43750000  0.68750000  3.051758e-05
  0.00000000  0.43750000  0.71875000  3.051758e-05
  0.00000000  0.43750000  0.75000000  3.051758e-05
  0.00000000  0.43750000  0.78125000  3.051758e-05
  0.00000000  0.43750000  0.81250000  3.051758e-05
  0.00000000  0.43750000  0.84375000  3.051758e-05
  0.00000000  0.43750000  0.87500000  3.051758e-05
  0.00000000  0.43750000  0.90625000  3.051758e-05
  0.00000000  0.43750000  0.93750000  3.051758e-05
  0.00000000  0.43750000  0.96875000  3.051758e-05
  0.00000000  0.46875000  0.00000000  3.051758e-05
  0.00000000  0.46875000  0.03125000  3.051758e-05
  0.00000000  0.46875000  0.06250000  3.051758e-05
  0.00000000  0.46875000  0.09375000  3.051758e-05
  0.00000000  0.46875000  0.12500000  3.051758e-05
  0.00000000  0.46875000  0.15625000  3.051758e-05
  0.00000000  0.46875000  0.18750000  3.051758e-05
  0.00000000  0.46875000  0.21875000  3.051758e-05
  0.00000000  0.46875000  0.25000000  3.051758e-05
  0.00000000  0.46875000  0.28125000  3.051758e-05
  0.00000000  0.46875000  0.31250000  3.051758e-05
  0.00000000  0.46875000  0.34375000  3.051758e-05
  0.00000000  0.46875000  0.37500000  3.051758e-05
  0.00000000  0.46875000  0.40625000  3.051758e-05
  0.00000000  0.46875000  0.43750000  3.051758e-05
  0.00000000  0.46875000  0.46875000  3.051758e-05
  0.00000000  0.46875000  0.50000000  3.051758e-05
  0.00000000  0.46875000  0.53125000  3.051758e-05
  0.00000000  0.46875000  0.56250000  3.051758e-05
  0.00000000  0.46875000  0.59375000  3.051758e-05
  0.00000000  0.46875000  0.62500000  3.051758e-05
  0.00000000  0.46875000  0.65625000  3.051758e-05
  0.00000000  0.46875000  0.68750000  3.051758e-05
  0.00000000  0.46875000  0.71875000  3.051758e-05
  0.00000000  0.46875000  0.75000000  3.051758e-05
  0.00000000  0.46875000  0.78125000  3.051758e-05
  0.00000000  0.46875000  0.81250000  3.051758e-05
  0.00000000  0.46875000  0.84375000  3.051758e-05
  0.00000000  0.46875000  0.87500000  3.051758e-05
  0.00000000  0.46875000  0.90625000  3.051758e-05
  0.00000000  0.46875000  0.93750000  3.051758e-05
  0.00000000  0.46875000  0.96875000  3.051758e-05
  0.00000000  0.50000000  0.00000000  3.051758e-05
  0.00000000  0.50000000  0.03125000  3.051758e-05
  0.00000000  0.50000000  0.06250000  3.051758e-05
  0.00000000  0.50000000  0.09375000  3.051758e-05
  0.00000000  0.50000000  0.12500000  3.051758e-05
  0.00000000  0.50000000  0.15625000  3.051758e-05
  0.00000000  0.50000000  0.18750000  3.051758e-05
  0.00000000  0.50000000  0.21875000  3.051758e-05
  0.00000000  0.50000000  0.25000000  3.051758e-05
  0.00000000  0.50000000  0.28125000  3.051758e-05
  0.00000000  0.50000000  0.31250000  3.051758e-05
  0.00000000  0.50000000  0.34375000  3.051758e-05
  0.00000000  0.50000000  0.37500000  3.051758e-05
  0.00000000  0.50000000  0.40625000  3.051758e-05
  0.00000000  0.50000000  0.43750000  3.051758e-05
  0.00000000  0.50000000  0.46875000  3.051758e-05
  0.00000000  0.50000000  0.50000000  3.051758e-05
  0.00000000  0.50000000  0.53125000  3.051758e-05
  0.00000000  0.50000000  0.56250000  3.051758e-05
  0.00000000  0.50000000  0.59375000  3.051758e-05
  0.00000000  0.50000000  0.62500000  3.051758e-05
  0.00000000  0.50000000  0.65625000  3.051758e-05
  0.00000000  0.50000000  0.68750000  3.051758e-05
  0.00000000  0.50000000  0.71875000  3.051758e-05
  0.00000000  0.50000000  0.75000000  3.051758e-05
  0.00000000  0.50000000  0.78125000  3.051758e-05
  0.00000000  0.50000000  0.81250000  3.051758e-05
  0.00000000  0.50000000  0.84375000  3.051758e-05
  0.00000000  0.50000000  0.87500000  3.051758e-05
  0.00000000  0.50000000  0.90625000  3.051758e-05
  0.00000000  0.50000000  0.93750000  3.051758e-05
  0.00000000  0.50000000  0.96875000  3.051758e-05
  0.00000000  0.53125000  0.00000000  3.051758e-05
  0.00000000  0.53125000  0.03125000  3.051758e-05
  0.00000000  0.53125000  0.06250000  3.051758e-05
  0.00000000  0.53125000  0.09375000  3.051758e-05
  0.00000000  0.53125000  0.12500000  3.051758e-05
  0.00000000  0.53125000  0.15625000  3.051758e-05
  0.00000000  0.53125000  0.18750000  3.051758e-05
  0.00000000  0.53125000  0.21875000  3.051758e-05
  0.00000000  0.53125000  0.25000000  3.051758e-05
  0.00000000  0.53125000  0.28125000  3.051758e-05
  0.00000000  0.53125000  0.31250000  3.051758e-05
  0.00000000  0.53125000  0.34375000  3.051758e-05
  0.00000000  0.53125000  0.37500000  3.051758e-05
  0.00000000  0.53125000  0.40625000  3.051758e-05
  0.00000000  0.53125000  0.43750000  3.051758e-05
  0.00000000  0.53125000  0.46875000  3.051758e-05
  0.00000000  0.53125000  0.50000000  3.051758e-05
  0.00000000  0.53125000  0.53125000  3.051758e-05
  0.00000000  0.53125000  0.56250000  3.051758e-05
  0.00000000  0.53125000  0.59375000  3.051758e-05
  0.00000000  0.53125000  0.62500000  3.051758e-05
  0.00000000  0.53125000  0.65625000  3.051758e-05
  0.00000000  0.53125000  0.68750000  3.051758e-05
  0.00000000  0.53125000  0.71875000  3.051758e-05
  0.00000000  0.53125000  0.75000000  3.051758e-05
  0.00000000  0.53125000  0.78125000  3.051758e-05
  0.00000000  0.53125000  0.81250000  3.051758e-05
  0.00000000  0.53125000  0.84375000  3.051758e-05
  0.00000000  0.53125000  0.87500000  3.051758e-05
  0.00000000  0.53125000  0.90625000  3.051758e-05
  0.00000000  0.53125000  0.93750000  3.051758e-05
  0.00000000  0.53125000  0.96875000  3.051758e-05