num_bands = 31
num_wann = 11

dis_win_min =  -10
dis_win_max =   10

dis_froz_min =  -1.8
dis_froz_max =   0

write_hr=T

guiding_centres=T

Begin Projections
Nb:d
Se:p
End Projections

kpath = true
kpath_task = bands
kpath_num_points=1000

!use_bloch_phases : T

!kslice = true
!kslice_task = fermi_lines
!fermi_energy =  -1.1510
!kslice_2dkmesh = 128 128
!kslice_corner = 0.0  0.0  0.0
!kslice_b1 =     2 -2 0
!kslice_b2 =     2  2  0





begin unit_cell_cart
  3.455740   0.000000   0.000000
 -1.727870   2.992759   0.000000
  0.000000   0.000000  23.367900
end unit_cell_cart

begin atoms_frac
Se      0.333333   0.666666   0.572648
Nb      0.000000   0.000000   0.500000
Se      0.333333   0.666666   0.427353
end atoms_frac


bands_plot = true

begin kpoint_path
G 0.0000000000    0.0000000000     0.0000000000  M 0.0000000000     0.5000000000     0.0000000000
M 0.0000000000    0.5000000000     0.0000000000  K 0.3333333333     0.3333333333     0.0000000000
K 0.3333333333    0.3333333333     0.0000000000  G 0.0000000000     0.0000000000     0.0000000000  
end kpoint_path

mp_grid           = 16 16 1
begin kpoints
0.00000000  0.00000000  0.00000000  3.906250e-03
0.00000000  0.06250000  0.00000000  3.906250e-03
0.00000000  0.12500000  0.00000000  3.906250e-03
0.00000000  0.18750000  0.00000000  3.906250e-03
0.00000000  0.25000000  0.00000000  3.906250e-03
0.00000000  0.31250000  0.00000000  3.906250e-03
0.00000000  0.37500000  0.00000000  3.906250e-03
0.00000000  0.43750000  0.00000000  3.906250e-03
0.00000000  0.50000000  0.00000000  3.906250e-03
0.00000000  0.56250000  0.00000000  3.906250e-03
0.00000000  0.62500000  0.00000000  3.906250e-03
0.00000000  0.68750000  0.00000000  3.906250e-03
0.00000000  0.75000000  0.00000000  3.906250e-03
0.00000000  0.81250000  0.00000000  3.906250e-03
0.00000000  0.87500000  0.00000000  3.906250e-03
0.00000000  0.93750000  0.00000000  3.906250e-03
0.06250000  0.00000000  0.00000000  3.906250e-03
0.06250000  0.06250000  0.00000000  3.906250e-03
0.06250000  0.12500000  0.00000000  3.906250e-03
0.06250000  0.18750000  0.00000000  3.906250e-03
0.06250000  0.25000000  0.00000000  3.906250e-03
0.06250000  0.31250000  0.00000000  3.906250e-03
0.06250000  0.37500000  0.00000000  3.906250e-03
0.06250000  0.43750000  0.00000000  3.906250e-03
0.06250000  0.50000000  0.00000000  3.906250e-03
0.06250000  0.56250000  0.00000000  3.906250e-03
0.06250000  0.62500000  0.00000000  3.906250e-03
0.06250000  0.68750000  0.00000000  3.906250e-03
0.06250000  0.75000000  0.00000000  3.906250e-03
0.06250000  0.81250000  0.00000000  3.906250e-03
0.06250000  0.87500000  0.00000000  3.906250e-03
0.06250000  0.93750000  0.00000000  3.906250e-03
0.12500000  0.00000000  0.00000000  3.906250e-03
0.12500000  0.06250000  0.00000000  3.906250e-03
0.12500000  0.12500000  0.00000000  3.906250e-03
0.12500000  0.18750000  0.00000000  3.906250e-03
0.12500000  0.25000000  0.00000000  3.906250e-03
0.12500000  0.31250000  0.00000000  3.906250e-03
0.12500000  0.37500000  0.00000000  3.906250e-03
0.12500000  0.43750000  0.00000000  3.906250e-03
0.12500000  0.50000000  0.00000000  3.906250e-03
0.12500000  0.56250000  0.00000000  3.906250e-03
0.12500000  0.62500000  0.00000000  3.906250e-03
0.12500000  0.68750000  0.00000000  3.906250e-03
0.12500000  0.75000000  0.00000000  3.906250e-03
0.12500000  0.81250000  0.00000000  3.906250e-03
0.12500000  0.87500000  0.00000000  3.906250e-03
0.12500000  0.93750000  0.00000000  3.906250e-03
0.18750000  0.00000000  0.00000000  3.906250e-03
0.18750000  0.06250000  0.00000000  3.906250e-03
0.18750000  0.12500000  0.00000000  3.906250e-03
0.18750000  0.18750000  0.00000000  3.906250e-03
0.18750000  0.25000000  0.00000000  3.906250e-03
0.18750000  0.31250000  0.00000000  3.906250e-03
0.18750000  0.37500000  0.00000000  3.906250e-03
0.18750000  0.43750000  0.00000000  3.906250e-03
0.18750000  0.50000000  0.00000000  3.906250e-03
0.18750000  0.56250000  0.00000000  3.906250e-03
0.18750000  0.62500000  0.00000000  3.906250e-03
0.18750000  0.68750000  0.00000000  3.906250e-03
0.18750000  0.75000000  0.00000000  3.906250e-03
0.18750000  0.81250000  0.00000000  3.906250e-03
0.18750000  0.87500000  0.00000000  3.906250e-03
0.18750000  0.93750000  0.00000000  3.906250e-03
0.25000000  0.00000000  0.00000000  3.906250e-03
0.25000000  0.06250000  0.00000000  3.906250e-03
0.25000000  0.12500000  0.00000000  3.906250e-03
0.25000000  0.18750000  0.00000000  3.906250e-03
0.25000000  0.25000000  0.00000000  3.906250e-03
0.25000000  0.31250000  0.00000000  3.906250e-03
0.25000000  0.37500000  0.00000000  3.906250e-03
0.25000000  0.43750000  0.00000000  3.906250e-03
0.25000000  0.50000000  0.00000000  3.906250e-03
0.25000000  0.56250000  0.00000000  3.906250e-03
0.25000000  0.62500000  0.00000000  3.906250e-03
0.25000000  0.68750000  0.00000000  3.906250e-03
0.25000000  0.75000000  0.00000000  3.906250e-03
0.25000000  0.81250000  0.00000000  3.906250e-03
0.25000000  0.87500000  0.00000000  3.906250e-03
0.25000000  0.93750000  0.00000000  3.906250e-03
0.31250000  0.00000000  0.00000000  3.906250e-03
0.31250000  0.06250000  0.00000000  3.906250e-03
0.31250000  0.12500000  0.00000000  3.906250e-03
0.31250000  0.18750000  0.00000000  3.906250e-03
0.31250000  0.25000000  0.00000000  3.906250e-03
0.31250000  0.31250000  0.00000000  3.906250e-03
0.31250000  0.37500000  0.00000000  3.906250e-03
0.31250000  0.43750000  0.00000000  3.906250e-03
0.31250000  0.50000000  0.00000000  3.906250e-03
0.31250000  0.56250000  0.00000000  3.906250e-03
0.31250000  0.62500000  0.00000000  3.906250e-03
0.31250000  0.68750000  0.00000000  3.906250e-03
0.31250000  0.75000000  0.00000000  3.906250e-03
0.31250000  0.81250000  0.00000000  3.906250e-03
0.31250000  0.87500000  0.00000000  3.906250e-03
0.31250000  0.93750000  0.00000000  3.906250e-03
0.37500000  0.00000000  0.00000000  3.906250e-03
0.37500000  0.06250000  0.00000000  3.906250e-03
0.37500000  0.12500000  0.00000000  3.906250e-03
0.37500000  0.18750000  0.00000000  3.906250e-03
0.37500000  0.25000000  0.00000000  3.906250e-03
0.37500000  0.31250000  0.00000000  3.906250e-03
0.37500000  0.37500000  0.00000000  3.906250e-03
0.37500000  0.43750000  0.00000000  3.906250e-03
0.37500000  0.50000000  0.00000000  3.906250e-03
0.37500000  0.56250000  0.00000000  3.906250e-03
0.37500000  0.62500000  0.00000000  3.906250e-03
0.37500000  0.68750000  0.00000000  3.906250e-03
0.37500000  0.75000000  0.00000000  3.906250e-03
0.37500000  0.81250000  0.00000000  3.906250e-03
0.37500000  0.87500000  0.00000000  3.906250e-03
0.37500000  0.93750000  0.00000000  3.906250e-03
0.43750000  0.00000000  0.00000000  3.906250e-03
0.43750000  0.06250000  0.00000000  3.906250e-03
0.43750000  0.12500000  0.00000000  3.906250e-03
0.43750000  0.18750000  0.00000000  3.906250e-03
0.43750000  0.25000000  0.00000000  3.906250e-03
0.43750000  0.31250000  0.00000000  3.906250e-03
0.43750000  0.37500000  0.00000000  3.906250e-03
0.43750000  0.43750000  0.00000000  3.906250e-03
0.43750000  0.50000000  0.00000000  3.906250e-03
0.43750000  0.56250000  0.00000000  3.906250e-03
0.43750000  0.62500000  0.00000000  3.906250e-03
0.43750000  0.68750000  0.00000000  3.906250e-03
0.43750000  0.75000000  0.00000000  3.906250e-03
0.43750000  0.81250000  0.00000000  3.906250e-03
0.43750000  0.87500000  0.00000000  3.906250e-03
0.43750000  0.93750000  0.00000000  3.906250e-03
0.50000000  0.00000000  0.00000000  3.906250e-03
0.50000000  0.06250000  0.00000000  3.906250e-03
0.50000000  0.12500000  0.00000000  3.906250e-03
0.50000000  0.18750000  0.00000000  3.906250e-03
0.50000000  0.25000000  0.00000000  3.906250e-03
0.50000000  0.31250000  0.00000000  3.906250e-03
0.50000000  0.37500000  0.00000000  3.906250e-03
0.50000000  0.43750000  0.00000000  3.906250e-03
0.50000000  0.50000000  0.00000000  3.906250e-03
0.50000000  0.56250000  0.00000000  3.906250e-03
0.50000000  0.62500000  0.00000000  3.906250e-03
0.50000000  0.68750000  0.00000000  3.906250e-03
0.50000000  0.75000000  0.00000000  3.906250e-03
0.50000000  0.81250000  0.00000000  3.906250e-03
0.50000000  0.87500000  0.00000000  3.906250e-03
0.50000000  0.93750000  0.00000000  3.906250e-03
0.56250000  0.00000000  0.00000000  3.906250e-03
0.56250000  0.06250000  0.00000000  3.906250e-03
0.56250000  0.12500000  0.00000000  3.906250e-03
0.56250000  0.18750000  0.00000000  3.906250e-03
0.56250000  0.25000000  0.00000000  3.906250e-03
0.56250000  0.31250000  0.00000000  3.906250e-03
0.56250000  0.37500000  0.00000000  3.906250e-03
0.56250000  0.43750000  0.00000000  3.906250e-03
0.56250000  0.50000000  0.00000000  3.906250e-03
0.56250000  0.56250000  0.00000000  3.906250e-03
0.56250000  0.62500000  0.00000000  3.906250e-03
0.56250000  0.68750000  0.00000000  3.906250e-03
0.56250000  0.75000000  0.00000000  3.906250e-03
0.56250000  0.81250000  0.00000000  3.906250e-03
0.56250000  0.87500000  0.00000000  3.906250e-03
0.56250000  0.93750000  0.00000000  3.906250e-03
0.62500000  0.00000000  0.00000000  3.906250e-03
0.62500000  0.06250000  0.00000000  3.906250e-03
0.62500000  0.12500000  0.00000000  3.906250e-03
0.62500000  0.18750000  0.00000000  3.906250e-03
0.62500000  0.25000000  0.00000000  3.906250e-03
0.62500000  0.31250000  0.00000000  3.906250e-03
0.62500000  0.37500000  0.00000000  3.906250e-03
0.62500000  0.43750000  0.00000000  3.906250e-03
0.62500000  0.50000000  0.00000000  3.906250e-03
0.62500000  0.56250000  0.00000000  3.906250e-03
0.62500000  0.62500000  0.00000000  3.906250e-03
0.62500000  0.68750000  0.00000000  3.906250e-03
0.62500000  0.75000000  0.00000000  3.906250e-03
0.62500000  0.81250000  0.00000000  3.906250e-03
0.62500000  0.87500000  0.00000000  3.906250e-03
0.62500000  0.93750000  0.00000000  3.906250e-03
0.68750000  0.00000000  0.00000000  3.906250e-03
0.68750000  0.06250000  0.00000000  3.906250e-03
0.68750000  0.12500000  0.00000000  3.906250e-03
0.68750000  0.18750000  0.00000000  3.906250e-03
0.68750000  0.25000000  0.00000000  3.906250e-03
0.68750000  0.31250000  0.00000000  3.906250e-03
0.68750000  0.37500000  0.00000000  3.906250e-03
0.68750000  0.43750000  0.00000000  3.906250e-03
0.68750000  0.50000000  0.00000000  3.906250e-03
0.68750000  0.56250000  0.00000000  3.906250e-03
0.68750000  0.62500000  0.00000000  3.906250e-03
0.68750000  0.68750000  0.00000000  3.906250e-03
0.68750000  0.75000000  0.00000000  3.906250e-03
0.68750000  0.81250000  0.00000000  3.906250e-03
0.68750000  0.87500000  0.00000000  3.906250e-03
0.68750000  0.93750000  0.00000000  3.906250e-03
0.75000000  0.00000000  0.00000000  3.906250e-03
0.75000000  0.06250000  0.00000000  3.906250e-03
0.75000000  0.12500000  0.00000000  3.906250e-03
0.75000000  0.18750000  0.00000000  3.906250e-03
0.75000000  0.25000000  0.00000000  3.906250e-03
0.75000000  0.31250000  0.00000000  3.906250e-03
0.75000000  0.37500000  0.00000000  3.906250e-03
0.75000000  0.43750000  0.00000000  3.906250e-03
0.75000000  0.50000000  0.00000000  3.906250e-03
0.75000000  0.56250000  0.00000000  3.906250e-03
0.75000000  0.62500000  0.00000000  3.906250e-03
0.75000000  0.68750000  0.00000000  3.906250e-03
0.75000000  0.75000000  0.00000000  3.906250e-03
0.75000000  0.81250000  0.00000000  3.906250e-03
0.75000000  0.87500000  0.00000000  3.906250e-03
0.75000000  0.93750000  0.00000000  3.906250e-03
0.81250000  0.00000000  0.00000000  3.906250e-03
0.81250000  0.06250000  0.00000000  3.906250e-03
0.81250000  0.12500000  0.00000000  3.906250e-03
0.81250000  0.18750000  0.00000000  3.906250e-03
0.81250000  0.25000000  0.00000000  3.906250e-03
0.81250000  0.31250000  0.00000000  3.906250e-03
0.81250000  0.37500000  0.00000000  3.906250e-03
0.81250000  0.43750000  0.00000000  3.906250e-03
0.81250000  0.50000000  0.00000000  3.906250e-03
0.81250000  0.56250000  0.00000000  3.906250e-03
0.81250000  0.62500000  0.00000000  3.906250e-03
0.81250000  0.68750000  0.00000000  3.906250e-03
0.81250000  0.75000000  0.00000000  3.906250e-03
0.81250000  0.81250000  0.00000000  3.906250e-03
0.81250000  0.87500000  0.00000000  3.906250e-03
0.81250000  0.93750000  0.00000000  3.906250e-03
0.87500000  0.00000000  0.00000000  3.906250e-03
0.87500000  0.06250000  0.00000000  3.906250e-03
0.87500000  0.12500000  0.00000000  3.906250e-03
0.87500000  0.18750000  0.00000000  3.906250e-03
0.87500000  0.25000000  0.00000000  3.906250e-03
0.87500000  0.31250000  0.00000000  3.906250e-03
0.87500000  0.37500000  0.00000000  3.906250e-03
0.87500000  0.43750000  0.00000000  3.906250e-03
0.87500000  0.50000000  0.00000000  3.906250e-03
0.87500000  0.56250000  0.00000000  3.906250e-03
0.87500000  0.62500000  0.00000000  3.906250e-03
0.87500000  0.68750000  0.00000000  3.906250e-03
0.87500000  0.75000000  0.00000000  3.906250e-03
0.87500000  0.81250000  0.00000000  3.906250e-03
0.87500000  0.87500000  0.00000000  3.906250e-03
0.87500000  0.93750000  0.00000000  3.906250e-03
0.93750000  0.00000000  0.00000000  3.906250e-03
0.93750000  0.06250000  0.00000000  3.906250e-03
0.93750000  0.12500000  0.00000000  3.906250e-03
0.93750000  0.18750000  0.00000000  3.906250e-03
0.93750000  0.25000000  0.00000000  3.906250e-03
0.93750000  0.31250000  0.00000000  3.906250e-03
0.93750000  0.37500000  0.00000000  3.906250e-03
0.93750000  0.43750000  0.00000000  3.906250e-03
0.93750000  0.50000000  0.00000000  3.906250e-03
0.93750000  0.56250000  0.00000000  3.906250e-03
0.93750000  0.62500000  0.00000000  3.906250e-03
0.93750000  0.68750000  0.00000000  3.906250e-03
0.93750000  0.75000000  0.00000000  3.906250e-03
0.93750000  0.81250000  0.00000000  3.906250e-03
0.93750000  0.87500000  0.00000000  3.906250e-03
0.93750000  0.93750000  0.00000000  3.906250e-03
end kpoints
