num_bands = 189
num_wann =99

dis_froz_min =  -2.3
dis_froz_max =   -0.6

dis_win_min =  -10
dis_win_max =   10

write_hr=T
guiding_centres=T

Begin Projections
Nb:d
Se:p
End Projections

kpath = true
kpath_task = bands


kpath_num_points=1000

!use_bloch_phases : T

!kslice = true
!kslice_task = fermi_lines
!fermi_energy = -1.6153
!kslice_2dkmesh = 100 100
!kslice_corner = 0.0  0.0  0.0
!kslice_b1 =     2 -2 0
!kslice_b2 =     2  2  0


begin unit_cell_cart
10.468200   0.000000   0.000000
-5.234100   9.065727   0.000000
 0.000000   0.000000  23.367900
end unit_cell_cart

begin atoms_cart
Se     -0.000000   2.014608  13.367933
Nb      0.000000   0.000000  11.683967
Se     -0.000000   2.014608  10.000000
Se     -1.744700   5.036517  13.367933
Nb     -1.744700   3.021909  11.683967
Se     -1.744700   5.036517  10.000000
Se     -3.489400   8.058426  13.367933
Nb     -3.489400   6.043818  11.683967
Se     -3.489400   8.058426  10.000000
Se      3.489400   2.014608  13.367933
Nb      3.489400   0.000000  11.683967
Se      3.489400   2.014608  10.000000
Se      1.744700   5.036517  13.367933
Nb      1.744700   3.021909  11.683967
Se      1.744700   5.036517  10.000000
Se     -0.000000   8.058426  13.367933
Nb      0.000000   6.043818  11.683967
Se     -0.000000   8.058426  10.000000
Se      6.978800   2.014608  13.367933
Nb      6.978800   0.000000  11.683967
Se      6.978800   2.014608  10.000000
Se      5.234100   5.036517  13.367933
Nb      5.234100   3.021909  11.683967
Se      5.234100   5.036517  10.000000
Se      3.489400   8.058426  13.367933
Nb      3.489400   6.043818  11.683967
Se      3.489400   8.058426  10.000000
end atoms_cart


bands_plot = true

begin kpoint_path
M 0.0000000000    1.5     0.0000000000  G 0.0000000000     0.0000000000     0.0000000000
G 0.0000000000    0.0000000000     0.0000000000  K 1     1     0.0000000000
K 1    1     0.0000000000  M 0.0000000000     1.5     0.0000000000
end kpoint_path

mp_grid           = 16 16 1
begin kpoints
0.00000000  0.00000000  0.00000000  3.906250e-03
0.00000000  0.06250000  0.00000000  3.906250e-03
0.00000000  0.12500000  0.00000000  3.906250e-03
0.00000000  0.18750000  0.00000000  3.906250e-03
0.00000000  0.25000000  0.00000000  3.906250e-03
0.00000000  0.31250000  0.00000000  3.906250e-03
0.00000000  0.37500000  0.00000000  3.906250e-03
0.00000000  0.43750000  0.00000000  3.906250e-03
0.00000000  0.50000000  0.00000000  3.906250e-03
0.00000000  0.56250000  0.00000000  3.906250e-03
0.00000000  0.62500000  0.00000000  3.906250e-03
0.00000000  0.68750000  0.00000000  3.906250e-03
0.00000000  0.75000000  0.00000000  3.906250e-03
0.00000000  0.81250000  0.00000000  3.906250e-03
0.00000000  0.87500000  0.00000000  3.906250e-03
0.00000000  0.93750000  0.00000000  3.906250e-03
0.06250000  0.00000000  0.00000000  3.906250e-03
0.06250000  0.06250000  0.00000000  3.906250e-03
0.06250000  0.12500000  0.00000000  3.906250e-03
0.06250000  0.18750000  0.00000000  3.906250e-03
0.06250000  0.25000000  0.00000000  3.906250e-03
0.06250000  0.31250000  0.00000000  3.906250e-03
0.06250000  0.37500000  0.00000000  3.906250e-03
0.06250000  0.43750000  0.00000000  3.906250e-03
0.06250000  0.50000000  0.00000000  3.906250e-03
0.06250000  0.56250000  0.00000000  3.906250e-03
0.06250000  0.62500000  0.00000000  3.906250e-03
0.06250000  0.68750000  0.00000000  3.906250e-03
0.06250000  0.75000000  0.00000000  3.906250e-03
0.06250000  0.81250000  0.00000000  3.906250e-03
0.06250000  0.87500000  0.00000000  3.906250e-03
0.06250000  0.93750000  0.00000000  3.906250e-03
0.12500000  0.00000000  0.00000000  3.906250e-03
0.12500000  0.06250000  0.00000000  3.906250e-03
0.12500000  0.12500000  0.00000000  3.906250e-03
0.12500000  0.18750000  0.00000000  3.906250e-03
0.12500000  0.25000000  0.00000000  3.906250e-03
0.12500000  0.31250000  0.00000000  3.906250e-03
0.12500000  0.37500000  0.00000000  3.906250e-03
0.12500000  0.43750000  0.00000000  3.906250e-03
0.12500000  0.50000000  0.00000000  3.906250e-03
0.12500000  0.56250000  0.00000000  3.906250e-03
0.12500000  0.62500000  0.00000000  3.906250e-03
0.12500000  0.68750000  0.00000000  3.906250e-03
0.12500000  0.75000000  0.00000000  3.906250e-03
0.12500000  0.81250000  0.00000000  3.906250e-03
0.12500000  0.87500000  0.00000000  3.906250e-03
0.12500000  0.93750000  0.00000000  3.906250e-03
0.18750000  0.00000000  0.00000000  3.906250e-03
0.18750000  0.06250000  0.00000000  3.906250e-03
0.18750000  0.12500000  0.00000000  3.906250e-03
0.18750000  0.18750000  0.00000000  3.906250e-03
0.18750000  0.25000000  0.00000000  3.906250e-03
0.18750000  0.31250000  0.00000000  3.906250e-03
0.18750000  0.37500000  0.00000000  3.906250e-03
0.18750000  0.43750000  0.00000000  3.906250e-03
0.18750000  0.50000000  0.00000000  3.906250e-03
0.18750000  0.56250000  0.00000000  3.906250e-03
0.18750000  0.62500000  0.00000000  3.906250e-03
0.18750000  0.68750000  0.00000000  3.906250e-03
0.18750000  0.75000000  0.00000000  3.906250e-03
0.18750000  0.81250000  0.00000000  3.906250e-03
0.18750000  0.87500000  0.00000000  3.906250e-03
0.18750000  0.93750000  0.00000000  3.906250e-03
0.25000000  0.00000000  0.00000000  3.906250e-03
0.25000000  0.06250000  0.00000000  3.906250e-03
0.25000000  0.12500000  0.00000000  3.906250e-03
0.25000000  0.18750000  0.00000000  3.906250e-03
0.25000000  0.25000000  0.00000000  3.906250e-03
0.25000000  0.31250000  0.00000000  3.906250e-03
0.25000000  0.37500000  0.00000000  3.906250e-03
0.25000000  0.43750000  0.00000000  3.906250e-03
0.25000000  0.50000000  0.00000000  3.906250e-03
0.25000000  0.56250000  0.00000000  3.906250e-03
0.25000000  0.62500000  0.00000000  3.906250e-03
0.25000000  0.68750000  0.00000000  3.906250e-03
0.25000000  0.75000000  0.00000000  3.906250e-03
0.25000000  0.81250000  0.00000000  3.906250e-03
0.25000000  0.87500000  0.00000000  3.906250e-03
0.25000000  0.93750000  0.00000000  3.906250e-03
0.31250000  0.00000000  0.00000000  3.906250e-03
0.31250000  0.06250000  0.00000000  3.906250e-03
0.31250000  0.12500000  0.00000000  3.906250e-03
0.31250000  0.18750000  0.00000000  3.906250e-03
0.31250000  0.25000000  0.00000000  3.906250e-03
0.31250000  0.31250000  0.00000000  3.906250e-03
0.31250000  0.37500000  0.00000000  3.906250e-03
0.31250000  0.43750000  0.00000000  3.906250e-03
0.31250000  0.50000000  0.00000000  3.906250e-03
0.31250000  0.56250000  0.00000000  3.906250e-03
0.31250000  0.62500000  0.00000000  3.906250e-03
0.31250000  0.68750000  0.00000000  3.906250e-03
0.31250000  0.75000000  0.00000000  3.906250e-03
0.31250000  0.81250000  0.00000000  3.906250e-03
0.31250000  0.87500000  0.00000000  3.906250e-03
0.31250000  0.93750000  0.00000000  3.906250e-03
0.37500000  0.00000000  0.00000000  3.906250e-03
0.37500000  0.06250000  0.00000000  3.906250e-03
0.37500000  0.12500000  0.00000000  3.906250e-03
0.37500000  0.18750000  0.00000000  3.906250e-03
0.37500000  0.25000000  0.00000000  3.906250e-03
0.37500000  0.31250000  0.00000000  3.906250e-03
0.37500000  0.37500000  0.00000000  3.906250e-03
0.37500000  0.43750000  0.00000000  3.906250e-03
0.37500000  0.50000000  0.00000000  3.906250e-03
0.37500000  0.56250000  0.00000000  3.906250e-03
0.37500000  0.62500000  0.00000000  3.906250e-03
0.37500000  0.68750000  0.00000000  3.906250e-03
0.37500000  0.75000000  0.00000000  3.906250e-03
0.37500000  0.81250000  0.00000000  3.906250e-03
0.37500000  0.87500000  0.00000000  3.906250e-03
0.37500000  0.93750000  0.00000000  3.906250e-03
0.43750000  0.00000000  0.00000000  3.906250e-03
0.43750000  0.06250000  0.00000000  3.906250e-03
0.43750000  0.12500000  0.00000000  3.906250e-03
0.43750000  0.18750000  0.00000000  3.906250e-03
0.43750000  0.25000000  0.00000000  3.906250e-03
0.43750000  0.31250000  0.00000000  3.906250e-03
0.43750000  0.37500000  0.00000000  3.906250e-03
0.43750000  0.43750000  0.00000000  3.906250e-03
0.43750000  0.50000000  0.00000000  3.906250e-03
0.43750000  0.56250000  0.00000000  3.906250e-03
0.43750000  0.62500000  0.00000000  3.906250e-03
0.43750000  0.68750000  0.00000000  3.906250e-03
0.43750000  0.75000000  0.00000000  3.906250e-03
0.43750000  0.81250000  0.00000000  3.906250e-03
0.43750000  0.87500000  0.00000000  3.906250e-03
0.43750000  0.93750000  0.00000000  3.906250e-03
0.50000000  0.00000000  0.00000000  3.906250e-03
0.50000000  0.06250000  0.00000000  3.906250e-03
0.50000000  0.12500000  0.00000000  3.906250e-03
0.50000000  0.18750000  0.00000000  3.906250e-03
0.50000000  0.25000000  0.00000000  3.906250e-03
0.50000000  0.31250000  0.00000000  3.906250e-03
0.50000000  0.37500000  0.00000000  3.906250e-03
0.50000000  0.43750000  0.00000000  3.906250e-03
0.50000000  0.50000000  0.00000000  3.906250e-03
0.50000000  0.56250000  0.00000000  3.906250e-03
0.50000000  0.62500000  0.00000000  3.906250e-03
0.50000000  0.68750000  0.00000000  3.906250e-03
0.50000000  0.75000000  0.00000000  3.906250e-03
0.50000000  0.81250000  0.00000000  3.906250e-03
0.50000000  0.87500000  0.00000000  3.906250e-03
0.50000000  0.93750000  0.00000000  3.906250e-03
0.56250000  0.00000000  0.00000000  3.906250e-03
0.56250000  0.06250000  0.00000000  3.906250e-03
0.56250000  0.12500000  0.00000000  3.906250e-03
0.56250000  0.18750000  0.00000000  3.906250e-03
0.56250000  0.25000000  0.00000000  3.906250e-03
0.56250000  0.31250000  0.00000000  3.906250e-03
0.56250000  0.37500000  0.00000000  3.906250e-03
0.56250000  0.43750000  0.00000000  3.906250e-03
0.56250000  0.50000000  0.00000000  3.906250e-03
0.56250000  0.56250000  0.00000000  3.906250e-03
0.56250000  0.62500000  0.00000000  3.906250e-03
0.56250000  0.68750000  0.00000000  3.906250e-03
0.56250000  0.75000000  0.00000000  3.906250e-03
0.56250000  0.81250000  0.00000000  3.906250e-03
0.56250000  0.87500000  0.00000000  3.906250e-03
0.56250000  0.93750000  0.00000000  3.906250e-03
0.62500000  0.00000000  0.00000000  3.906250e-03
0.62500000  0.06250000  0.00000000  3.906250e-03
0.62500000  0.12500000  0.00000000  3.906250e-03
0.62500000  0.18750000  0.00000000  3.906250e-03
0.62500000  0.25000000  0.00000000  3.906250e-03
0.62500000  0.31250000  0.00000000  3.906250e-03
0.62500000  0.37500000  0.00000000  3.906250e-03
0.62500000  0.43750000  0.00000000  3.906250e-03
0.62500000  0.50000000  0.00000000  3.906250e-03
0.62500000  0.56250000  0.00000000  3.906250e-03
0.62500000  0.62500000  0.00000000  3.906250e-03
0.62500000  0.68750000  0.00000000  3.906250e-03
0.62500000  0.75000000  0.00000000  3.906250e-03
0.62500000  0.81250000  0.00000000  3.906250e-03
0.62500000  0.87500000  0.00000000  3.906250e-03
0.62500000  0.93750000  0.00000000  3.906250e-03
0.68750000  0.00000000  0.00000000  3.906250e-03
0.68750000  0.06250000  0.00000000  3.906250e-03
0.68750000  0.12500000  0.00000000  3.906250e-03
0.68750000  0.18750000  0.00000000  3.906250e-03
0.68750000  0.25000000  0.00000000  3.906250e-03
0.68750000  0.31250000  0.00000000  3.906250e-03
0.68750000  0.37500000  0.00000000  3.906250e-03
0.68750000  0.43750000  0.00000000  3.906250e-03
0.68750000  0.50000000  0.00000000  3.906250e-03
0.68750000  0.56250000  0.00000000  3.906250e-03
0.68750000  0.62500000  0.00000000  3.906250e-03
0.68750000  0.68750000  0.00000000  3.906250e-03
0.68750000  0.75000000  0.00000000  3.906250e-03
0.68750000  0.81250000  0.00000000  3.906250e-03
0.68750000  0.87500000  0.00000000  3.906250e-03
0.68750000  0.93750000  0.00000000  3.906250e-03
0.75000000  0.00000000  0.00000000  3.906250e-03
0.75000000  0.06250000  0.00000000  3.906250e-03
0.75000000  0.12500000  0.00000000  3.906250e-03
0.75000000  0.18750000  0.00000000  3.906250e-03
0.75000000  0.25000000  0.00000000  3.906250e-03
0.75000000  0.31250000  0.00000000  3.906250e-03
0.75000000  0.37500000  0.00000000  3.906250e-03
0.75000000  0.43750000  0.00000000  3.906250e-03
0.75000000  0.50000000  0.00000000  3.906250e-03
0.75000000  0.56250000  0.00000000  3.906250e-03
0.75000000  0.62500000  0.00000000  3.906250e-03
0.75000000  0.68750000  0.00000000  3.906250e-03
0.75000000  0.75000000  0.00000000  3.906250e-03
0.75000000  0.81250000  0.00000000  3.906250e-03
0.75000000  0.87500000  0.00000000  3.906250e-03
0.75000000  0.93750000  0.00000000  3.906250e-03
0.81250000  0.00000000  0.00000000  3.906250e-03
0.81250000  0.06250000  0.00000000  3.906250e-03
0.81250000  0.12500000  0.00000000  3.906250e-03
0.81250000  0.18750000  0.00000000  3.906250e-03
0.81250000  0.25000000  0.00000000  3.906250e-03
0.81250000  0.31250000  0.00000000  3.906250e-03
0.81250000  0.37500000  0.00000000  3.906250e-03
0.81250000  0.43750000  0.00000000  3.906250e-03
0.81250000  0.50000000  0.00000000  3.906250e-03
0.81250000  0.56250000  0.00000000  3.906250e-03
0.81250000  0.62500000  0.00000000  3.906250e-03
0.81250000  0.68750000  0.00000000  3.906250e-03
0.81250000  0.75000000  0.00000000  3.906250e-03
0.81250000  0.81250000  0.00000000  3.906250e-03
0.81250000  0.87500000  0.00000000  3.906250e-03
0.81250000  0.93750000  0.00000000  3.906250e-03
0.87500000  0.00000000  0.00000000  3.906250e-03
0.87500000  0.06250000  0.00000000  3.906250e-03
0.87500000  0.12500000  0.00000000  3.906250e-03
0.87500000  0.18750000  0.00000000  3.906250e-03
0.87500000  0.25000000  0.00000000  3.906250e-03
0.87500000  0.31250000  0.00000000  3.906250e-03
0.87500000  0.37500000  0.00000000  3.906250e-03
0.87500000  0.43750000  0.00000000  3.906250e-03
0.87500000  0.50000000  0.00000000  3.906250e-03
0.87500000  0.56250000  0.00000000  3.906250e-03
0.87500000  0.62500000  0.00000000  3.906250e-03
0.87500000  0.68750000  0.00000000  3.906250e-03
0.87500000  0.75000000  0.00000000  3.906250e-03
0.87500000  0.81250000  0.00000000  3.906250e-03
0.87500000  0.87500000  0.00000000  3.906250e-03
0.87500000  0.93750000  0.00000000  3.906250e-03
0.93750000  0.00000000  0.00000000  3.906250e-03
0.93750000  0.06250000  0.00000000  3.906250e-03
0.93750000  0.12500000  0.00000000  3.906250e-03
0.93750000  0.18750000  0.00000000  3.906250e-03
0.93750000  0.25000000  0.00000000  3.906250e-03
0.93750000  0.31250000  0.00000000  3.906250e-03
0.93750000  0.37500000  0.00000000  3.906250e-03
0.93750000  0.43750000  0.00000000  3.906250e-03
0.93750000  0.50000000  0.00000000  3.906250e-03
0.93750000  0.56250000  0.00000000  3.906250e-03
0.93750000  0.62500000  0.00000000  3.906250e-03
0.93750000  0.68750000  0.00000000  3.906250e-03
0.93750000  0.75000000  0.00000000  3.906250e-03
0.93750000  0.81250000  0.00000000  3.906250e-03
0.93750000  0.87500000  0.00000000  3.906250e-03
0.93750000  0.93750000  0.00000000  3.906250e-03
end kpoints
