&CONTROL
    calculation = "bands"
    restart_mode='from_scratch'
    outdir="./outdir"
    prefix="graphene"
    pseudo_dir  = "/home/sinan/.burai/.pseudopot"
/

&SYSTEM
    degauss     =  1.00000e-02
    ecutrho     =  3.61681e+02
    ecutwfc     =  4.01868e+01
    ibrav       = 0
    nat         = 8
    nbnd        = 32
    ntyp        = 1
    occupations = "smearing"
    smearing    = "gaussian"
/

&ELECTRONS
    conv_thr         =  1.00000e-08
    mixing_beta      =  4.00000e-01
/


ATOMIC_SPECIES
C      12.01070  C.pbe-n-kjpaw_psl.1.0.0.UPF

CELL_PARAMETERS (angstrom)
   4.933905445  -0.000000000   0.000000000
  -2.466952723   4.272887036   0.000000000
   0.000000000   0.000000000   4.342520000

ATOMIC_POSITIONS (crystal)
C             0.0000000000        0.0000000000        0.5000000000
C             0.3333340456        0.1666670228        0.5000000000
C            -0.0000000225        0.4999999887        0.5000000000
C             0.3333340000        0.6666670000        0.5000000000
C             0.5000000113        0.0000000225        0.5000000000
C             0.8333339772        0.1666670228        0.5000000000
C             0.5000000113        0.4999999887        0.5000000000
C             0.8333339772        0.6666669544        0.5000000000

K_POINTS crystal_b
4
0.3333333333   0.3333333333 0.000000000 40 ! K
0.0000000000 0.000000000 0.000000000 40 ! G
0.000000000 0.500000000 0.000000000 20 ! M
0.3333333333   0.3333333333 0.000000000 1 ! K
