num_bands = 32
num_wann =8

dis_froz_min =  4
dis_froz_max =   6

dis_win_min =   -15
dis_win_max =   20

write_hr=T
!guiding_centres=T

Begin Projections
C:pz
C:pz
C:pz
C:pz
C:pz
C:pz
C:pz
C:pz
End Projections

kpath = true
kpath_task = bands
fermi_energy = 4.8056

kpath_num_points=1000

!use_bloch_phases : T

!kslice = true
!kslice_task = fermi_lines
!fermi_energy = -1.6153
!kslice_2dkmesh = 100 100
!kslice_corner = 0.0  0.0  0.0
!kslice_b1 =     2 -2 0
!kslice_b2 =     2  2  0


begin unit_cell_cart
   4.933905445  -0.000000000   0.000000000
  -2.466952723   4.272887036   0.000000000
   0.000000000   0.000000000   4.342520000
end unit_cell_cart

begin atoms_frac 
C             0.0000000000        0.0000000000        0.5000000000
C             0.3333340456        0.1666670228        0.5000000000
C            -0.0000000225        0.4999999887        0.5000000000
C             0.3333340000        0.6666670000        0.5000000000
C             0.5000000113        0.0000000225        0.5000000000
C             0.8333339772        0.1666670228        0.5000000000
C             0.5000000113        0.4999999887        0.5000000000
C             0.8333339772        0.6666669544        0.5000000000
end atoms_frac 


bands_plot = true

begin kpoint_path
K 0.3333333333    0.3333333333     0.0000000000  G 0.0000000000     0.0000000000     0.0000000000
G 0.0000000000    0.0000000000     0.0000000000  M 0.0000000000     0.5000000000     0.0000000000  
M 0.0000000000    0.5000000000     0.0000000000  K 0.3333333333     0.3333333333     0.0000000000
end kpoint_path

mp_grid           = 16 16 1
begin kpoints
  0.00000000  0.00000000  0.00000000  3.906250e-03
  0.00000000  0.06250000  0.00000000  3.906250e-03
  0.00000000  0.12500000  0.00000000  3.906250e-03
  0.00000000  0.18750000  0.00000000  3.906250e-03
  0.00000000  0.25000000  0.00000000  3.906250e-03
  0.00000000  0.31250000  0.00000000  3.906250e-03
  0.00000000  0.37500000  0.00000000  3.906250e-03
  0.00000000  0.43750000  0.00000000  3.906250e-03
  0.00000000  0.50000000  0.00000000  3.906250e-03
  0.00000000  0.56250000  0.00000000  3.906250e-03
  0.00000000  0.62500000  0.00000000  3.906250e-03
  0.00000000  0.68750000  0.00000000  3.906250e-03
  0.00000000  0.75000000  0.00000000  3.906250e-03
  0.00000000  0.81250000  0.00000000  3.906250e-03
  0.00000000  0.87500000  0.00000000  3.906250e-03
  0.00000000  0.93750000  0.00000000  3.906250e-03
  0.06250000  0.00000000  0.00000000  3.906250e-03
  0.06250000  0.06250000  0.00000000  3.906250e-03
  0.06250000  0.12500000  0.00000000  3.906250e-03
  0.06250000  0.18750000  0.00000000  3.906250e-03
  0.06250000  0.25000000  0.00000000  3.906250e-03
  0.06250000  0.31250000  0.00000000  3.906250e-03
  0.06250000  0.37500000  0.00000000  3.906250e-03
  0.06250000  0.43750000  0.00000000  3.906250e-03
  0.06250000  0.50000000  0.00000000  3.906250e-03
  0.06250000  0.56250000  0.00000000  3.906250e-03
  0.06250000  0.62500000  0.00000000  3.906250e-03
  0.06250000  0.68750000  0.00000000  3.906250e-03
  0.06250000  0.75000000  0.00000000  3.906250e-03
  0.06250000  0.81250000  0.00000000  3.906250e-03
  0.06250000  0.87500000  0.00000000  3.906250e-03
  0.06250000  0.93750000  0.00000000  3.906250e-03
  0.12500000  0.00000000  0.00000000  3.906250e-03
  0.12500000  0.06250000  0.00000000  3.906250e-03
  0.12500000  0.12500000  0.00000000  3.906250e-03
  0.12500000  0.18750000  0.00000000  3.906250e-03
  0.12500000  0.25000000  0.00000000  3.906250e-03
  0.12500000  0.31250000  0.00000000  3.906250e-03
  0.12500000  0.37500000  0.00000000  3.906250e-03
  0.12500000  0.43750000  0.00000000  3.906250e-03
  0.12500000  0.50000000  0.00000000  3.906250e-03
  0.12500000  0.56250000  0.00000000  3.906250e-03
  0.12500000  0.62500000  0.00000000  3.906250e-03
  0.12500000  0.68750000  0.00000000  3.906250e-03
  0.12500000  0.75000000  0.00000000  3.906250e-03
  0.12500000  0.81250000  0.00000000  3.906250e-03
  0.12500000  0.87500000  0.00000000  3.906250e-03
  0.12500000  0.93750000  0.00000000  3.906250e-03
  0.18750000  0.00000000  0.00000000  3.906250e-03
  0.18750000  0.06250000  0.00000000  3.906250e-03
  0.18750000  0.12500000  0.00000000  3.906250e-03
  0.18750000  0.18750000  0.00000000  3.906250e-03
  0.18750000  0.25000000  0.00000000  3.906250e-03
  0.18750000  0.31250000  0.00000000  3.906250e-03
  0.18750000  0.37500000  0.00000000  3.906250e-03
  0.18750000  0.43750000  0.00000000  3.906250e-03
  0.18750000  0.50000000  0.00000000  3.906250e-03
  0.18750000  0.56250000  0.00000000  3.906250e-03
  0.18750000  0.62500000  0.00000000  3.906250e-03
  0.18750000  0.68750000  0.00000000  3.906250e-03
  0.18750000  0.75000000  0.00000000  3.906250e-03
  0.18750000  0.81250000  0.00000000  3.906250e-03
  0.18750000  0.87500000  0.00000000  3.906250e-03
  0.18750000  0.93750000  0.00000000  3.906250e-03
  0.25000000  0.00000000  0.00000000  3.906250e-03
  0.25000000  0.06250000  0.00000000  3.906250e-03
  0.25000000  0.12500000  0.00000000  3.906250e-03
  0.25000000  0.18750000  0.00000000  3.906250e-03
  0.25000000  0.25000000  0.00000000  3.906250e-03
  0.25000000  0.31250000  0.00000000  3.906250e-03
  0.25000000  0.37500000  0.00000000  3.906250e-03
  0.25000000  0.43750000  0.00000000  3.906250e-03
  0.25000000  0.50000000  0.00000000  3.906250e-03
  0.25000000  0.56250000  0.00000000  3.906250e-03
  0.25000000  0.62500000  0.00000000  3.906250e-03
  0.25000000  0.68750000  0.00000000  3.906250e-03
  0.25000000  0.75000000  0.00000000  3.906250e-03
  0.25000000  0.81250000  0.00000000  3.906250e-03
  0.25000000  0.87500000  0.00000000  3.906250e-03
  0.25000000  0.93750000  0.00000000  3.906250e-03
  0.31250000  0.00000000  0.00000000  3.906250e-03
  0.31250000  0.06250000  0.00000000  3.906250e-03
  0.31250000  0.12500000  0.00000000  3.906250e-03
  0.31250000  0.18750000  0.00000000  3.906250e-03
  0.31250000  0.25000000  0.00000000  3.906250e-03
  0.31250000  0.31250000  0.00000000  3.906250e-03
  0.31250000  0.37500000  0.00000000  3.906250e-03
  0.31250000  0.43750000  0.00000000  3.906250e-03
  0.31250000  0.50000000  0.00000000  3.906250e-03
  0.31250000  0.56250000  0.00000000  3.906250e-03
  0.31250000  0.62500000  0.00000000  3.906250e-03
  0.31250000  0.68750000  0.00000000  3.906250e-03
  0.31250000  0.75000000  0.00000000  3.906250e-03
  0.31250000  0.81250000  0.00000000  3.906250e-03
  0.31250000  0.87500000  0.00000000  3.906250e-03
  0.31250000  0.93750000  0.00000000  3.906250e-03
  0.37500000  0.00000000  0.00000000  3.906250e-03
  0.37500000  0.06250000  0.00000000  3.906250e-03
  0.37500000  0.12500000  0.00000000  3.906250e-03
  0.37500000  0.18750000  0.00000000  3.906250e-03
  0.37500000  0.25000000  0.00000000  3.906250e-03
  0.37500000  0.31250000  0.00000000  3.906250e-03
  0.37500000  0.37500000  0.00000000  3.906250e-03
  0.37500000  0.43750000  0.00000000  3.906250e-03
  0.37500000  0.50000000  0.00000000  3.906250e-03
  0.37500000  0.56250000  0.00000000  3.906250e-03
  0.37500000  0.62500000  0.00000000  3.906250e-03
  0.37500000  0.68750000  0.00000000  3.906250e-03
  0.37500000  0.75000000  0.00000000  3.906250e-03
  0.37500000  0.81250000  0.00000000  3.906250e-03
  0.37500000  0.87500000  0.00000000  3.906250e-03
  0.37500000  0.93750000  0.00000000  3.906250e-03
  0.43750000  0.00000000  0.00000000  3.906250e-03
  0.43750000  0.06250000  0.00000000  3.906250e-03
  0.43750000  0.12500000  0.00000000  3.906250e-03
  0.43750000  0.18750000  0.00000000  3.906250e-03
  0.43750000  0.25000000  0.00000000  3.906250e-03
  0.43750000  0.31250000  0.00000000  3.906250e-03
  0.43750000  0.37500000  0.00000000  3.906250e-03
  0.43750000  0.43750000  0.00000000  3.906250e-03
  0.43750000  0.50000000  0.00000000  3.906250e-03
  0.43750000  0.56250000  0.00000000  3.906250e-03
  0.43750000  0.62500000  0.00000000  3.906250e-03
  0.43750000  0.68750000  0.00000000  3.906250e-03
  0.43750000  0.75000000  0.00000000  3.906250e-03
  0.43750000  0.81250000  0.00000000  3.906250e-03
  0.43750000  0.87500000  0.00000000  3.906250e-03
  0.43750000  0.93750000  0.00000000  3.906250e-03
  0.50000000  0.00000000  0.00000000  3.906250e-03
  0.50000000  0.06250000  0.00000000  3.906250e-03
  0.50000000  0.12500000  0.00000000  3.906250e-03
  0.50000000  0.18750000  0.00000000  3.906250e-03
  0.50000000  0.25000000  0.00000000  3.906250e-03
  0.50000000  0.31250000  0.00000000  3.906250e-03
  0.50000000  0.37500000  0.00000000  3.906250e-03
  0.50000000  0.43750000  0.00000000  3.906250e-03
  0.50000000  0.50000000  0.00000000  3.906250e-03
  0.50000000  0.56250000  0.00000000  3.906250e-03
  0.50000000  0.62500000  0.00000000  3.906250e-03
  0.50000000  0.68750000  0.00000000  3.906250e-03
  0.50000000  0.75000000  0.00000000  3.906250e-03
  0.50000000  0.81250000  0.00000000  3.906250e-03
  0.50000000  0.87500000  0.00000000  3.906250e-03
  0.50000000  0.93750000  0.00000000  3.906250e-03
  0.56250000  0.00000000  0.00000000  3.906250e-03
  0.56250000  0.06250000  0.00000000  3.906250e-03
  0.56250000  0.12500000  0.00000000  3.906250e-03
  0.56250000  0.18750000  0.00000000  3.906250e-03
  0.56250000  0.25000000  0.00000000  3.906250e-03
  0.56250000  0.31250000  0.00000000  3.906250e-03
  0.56250000  0.37500000  0.00000000  3.906250e-03
  0.56250000  0.43750000  0.00000000  3.906250e-03
  0.56250000  0.50000000  0.00000000  3.906250e-03
  0.56250000  0.56250000  0.00000000  3.906250e-03
  0.56250000  0.62500000  0.00000000  3.906250e-03
  0.56250000  0.68750000  0.00000000  3.906250e-03
  0.56250000  0.75000000  0.00000000  3.906250e-03
  0.56250000  0.81250000  0.00000000  3.906250e-03
  0.56250000  0.87500000  0.00000000  3.906250e-03
  0.56250000  0.93750000  0.00000000  3.906250e-03
  0.62500000  0.00000000  0.00000000  3.906250e-03
  0.62500000  0.06250000  0.00000000  3.906250e-03
  0.62500000  0.12500000  0.00000000  3.906250e-03
  0.62500000  0.18750000  0.00000000  3.906250e-03
  0.62500000  0.25000000  0.00000000  3.906250e-03
  0.62500000  0.31250000  0.00000000  3.906250e-03
  0.62500000  0.37500000  0.00000000  3.906250e-03
  0.62500000  0.43750000  0.00000000  3.906250e-03
  0.62500000  0.50000000  0.00000000  3.906250e-03
  0.62500000  0.56250000  0.00000000  3.906250e-03
  0.62500000  0.62500000  0.00000000  3.906250e-03
  0.62500000  0.68750000  0.00000000  3.906250e-03
  0.62500000  0.75000000  0.00000000  3.906250e-03
  0.62500000  0.81250000  0.00000000  3.906250e-03
  0.62500000  0.87500000  0.00000000  3.906250e-03
  0.62500000  0.93750000  0.00000000  3.906250e-03
  0.68750000  0.00000000  0.00000000  3.906250e-03
  0.68750000  0.06250000  0.00000000  3.906250e-03
  0.68750000  0.12500000  0.00000000  3.906250e-03
  0.68750000  0.18750000  0.00000000  3.906250e-03
  0.68750000  0.25000000  0.00000000  3.906250e-03
  0.68750000  0.31250000  0.00000000  3.906250e-03
  0.68750000  0.37500000  0.00000000  3.906250e-03
  0.68750000  0.43750000  0.00000000  3.906250e-03
  0.68750000  0.50000000  0.00000000  3.906250e-03
  0.68750000  0.56250000  0.00000000  3.906250e-03
  0.68750000  0.62500000  0.00000000  3.906250e-03
  0.68750000  0.68750000  0.00000000  3.906250e-03
  0.68750000  0.75000000  0.00000000  3.906250e-03
  0.68750000  0.81250000  0.00000000  3.906250e-03
  0.68750000  0.87500000  0.00000000  3.906250e-03
  0.68750000  0.93750000  0.00000000  3.906250e-03
  0.75000000  0.00000000  0.00000000  3.906250e-03
  0.75000000  0.06250000  0.00000000  3.906250e-03
  0.75000000  0.12500000  0.00000000  3.906250e-03
  0.75000000  0.18750000  0.00000000  3.906250e-03
  0.75000000  0.25000000  0.00000000  3.906250e-03
  0.75000000  0.31250000  0.00000000  3.906250e-03
  0.75000000  0.37500000  0.00000000  3.906250e-03
  0.75000000  0.43750000  0.00000000  3.906250e-03
  0.75000000  0.50000000  0.00000000  3.906250e-03
  0.75000000  0.56250000  0.00000000  3.906250e-03
  0.75000000  0.62500000  0.00000000  3.906250e-03
  0.75000000  0.68750000  0.00000000  3.906250e-03
  0.75000000  0.75000000  0.00000000  3.906250e-03
  0.75000000  0.81250000  0.00000000  3.906250e-03
  0.75000000  0.87500000  0.00000000  3.906250e-03
  0.75000000  0.93750000  0.00000000  3.906250e-03
  0.81250000  0.00000000  0.00000000  3.906250e-03
  0.81250000  0.06250000  0.00000000  3.906250e-03
  0.81250000  0.12500000  0.00000000  3.906250e-03
  0.81250000  0.18750000  0.00000000  3.906250e-03
  0.81250000  0.25000000  0.00000000  3.906250e-03
  0.81250000  0.31250000  0.00000000  3.906250e-03
  0.81250000  0.37500000  0.00000000  3.906250e-03
  0.81250000  0.43750000  0.00000000  3.906250e-03
  0.81250000  0.50000000  0.00000000  3.906250e-03
  0.81250000  0.56250000  0.00000000  3.906250e-03
  0.81250000  0.62500000  0.00000000  3.906250e-03
  0.81250000  0.68750000  0.00000000  3.906250e-03
  0.81250000  0.75000000  0.00000000  3.906250e-03
  0.81250000  0.81250000  0.00000000  3.906250e-03
  0.81250000  0.87500000  0.00000000  3.906250e-03
  0.81250000  0.93750000  0.00000000  3.906250e-03
  0.87500000  0.00000000  0.00000000  3.906250e-03
  0.87500000  0.06250000  0.00000000  3.906250e-03
  0.87500000  0.12500000  0.00000000  3.906250e-03
  0.87500000  0.18750000  0.00000000  3.906250e-03
  0.87500000  0.25000000  0.00000000  3.906250e-03
  0.87500000  0.31250000  0.00000000  3.906250e-03
  0.87500000  0.37500000  0.00000000  3.906250e-03
  0.87500000  0.43750000  0.00000000  3.906250e-03
  0.87500000  0.50000000  0.00000000  3.906250e-03
  0.87500000  0.56250000  0.00000000  3.906250e-03
  0.87500000  0.62500000  0.00000000  3.906250e-03
  0.87500000  0.68750000  0.00000000  3.906250e-03
  0.87500000  0.75000000  0.00000000  3.906250e-03
  0.87500000  0.81250000  0.00000000  3.906250e-03
  0.87500000  0.87500000  0.00000000  3.906250e-03
  0.87500000  0.93750000  0.00000000  3.906250e-03
  0.93750000  0.00000000  0.00000000  3.906250e-03
  0.93750000  0.06250000  0.00000000  3.906250e-03
  0.93750000  0.12500000  0.00000000  3.906250e-03
  0.93750000  0.18750000  0.00000000  3.906250e-03
  0.93750000  0.25000000  0.00000000  3.906250e-03
  0.93750000  0.31250000  0.00000000  3.906250e-03
  0.93750000  0.37500000  0.00000000  3.906250e-03
  0.93750000  0.43750000  0.00000000  3.906250e-03
  0.93750000  0.50000000  0.00000000  3.906250e-03
  0.93750000  0.56250000  0.00000000  3.906250e-03
  0.93750000  0.62500000  0.00000000  3.906250e-03
  0.93750000  0.68750000  0.00000000  3.906250e-03
  0.93750000  0.75000000  0.00000000  3.906250e-03
  0.93750000  0.81250000  0.00000000  3.906250e-03
  0.93750000  0.87500000  0.00000000  3.906250e-03
  0.93750000  0.93750000  0.00000000  3.906250e-03
end kpoints

