&bands
outdir = './outdir'
prefix = 'nbse2'
filband = 'nbse2.bands.dat'
!plot_2d=.true
/
