&bands
outdir = './outdir'
prefix = 'graphene'
filband = 'graphene.bands.dat'
!plot_2d=.true
/

