&CONTROL
    calculation = "bands"
    max_seconds =  8.64000e+04
    prefix='nbse2'
    outdir='./outdir'
    pseudo_dir   = "../Pseudos/"
/

&SYSTEM
    a     =  1.04682e+01
    c     =  2.33679e+01
    degauss                   =  0.05
    ecutrho                   =  230
    ecutwfc                   =  25
    ibrav                     = 4
    nat                       = 27
    ntyp                      = 2
    occupations               = "smearing"
    smearing                  = "gaussian"
    lspinorb                  = .TRUE.
    noncolin                  = .TRUE.
/

&ELECTRONS
    conv_thr         =  1.00000e-08
    mixing_beta      =  4.00000e-01
/


K_POINTS crystal_b
4
0.000000000 0.500000000 0.000000000 100 ! M
0.0000000000 0.000000000 0.000000000 100 ! G
-0.333333333 0.666666667 0.000000000 100 ! K
0.000000000 0.500000000 0.000000000 100 ! M


ATOMIC_SPECIES
Se     78.96000  Se.rel-pbe-n-kjpaw_psl.0.2.UPF
Nb     92.90638  Nb.rel-pbe-spn-kjpaw_psl.1.0.0.UPF

ATOMIC_POSITIONS {angstrom}
Se     -0.000000   2.014608  13.367933
Nb      0.000000   0.000000  11.683967  0 0 0
Se     -0.000000   2.014608  10.000000  0 0 0
Se     -1.744700   5.036517  13.367933
Nb     -1.744700   3.021909  11.683967  0 0 0
Se     -1.744700   5.036517  10.000000  0 0 0
Se     -3.489400   8.058426  13.367933
Nb     -3.489400   6.043818  11.683967  0 0 0
Se     -3.489400   8.058426  10.000000  0 0 0
Se      3.489400   2.014608  13.367933
Nb      3.489400   0.000000  11.683967  0 0 0
Se      3.489400   2.014608  10.000000  0 0 0
Se      1.744700   5.036517  13.367933
Nb      1.744700   3.021909  11.683967  0 0 0
Se      1.744700   5.036517  10.000000  0 0 0
Se     -0.000000   8.058426  13.367933
Nb      0.000000   6.043818  11.683967  0 0 0
Se     -0.000000   8.058426  10.000000  0 0 0
Se      6.978800   2.014608  13.367933
Nb      6.978800   0.000000  11.683967  0 0 0
Se      6.978800   2.014608  10.000000  0 0 0
Se      5.234100   5.036517  13.367933
Nb      5.234100   3.021909  11.683967  0 0 0
Se      5.234100   5.036517  10.000000  0 0 0
Se      3.489400   8.058426  13.367933
Nb      3.489400   6.043818  11.683967  0 0 0
Se      3.489400   8.058426  10.000000  0 0 0
