&input
  fildyn = 'NbSe2.dyn'
  zasr = 'simple'
  flfrc = 'NbSe2.k331.fc'
/