num_bands = 189
num_wann = 99

dis_win_min =  -10
dis_win_max =   10

dis_froz_min =  -0.98
dis_froz_max =   0.55

write_hr=T
guiding_centres=T

Begin Projections
Nb:d
Se:p
End Projections

kpath = true
kpath_task = bands
kpath_num_points=1000

!use_bloch_phases : T

!kslice = true
!kslice_task = fermi_lines
!fermi_energy = -0.4730
!kslice_2dkmesh = 100 100
!kslice_corner = 0.0  0.0  0.0
!kslice_b1 =     2 -2 0
!kslice_b2 =     2  2  0


begin unit_cell_cart
9.052390  -5.226400   0.000000
0.000000  10.452800   0.000000
0.000000   0.000000  18.414500
end unit_cell_cart

begin atoms_frac
Nb      0.108063   0.216127   0.500000
Nb      0.783873   0.891937   0.500000
Nb      0.108063   0.891937   0.500000
Nb      0.436680   0.218340   0.500000
Nb      0.781660   0.218340   0.500000
Nb      0.781660   0.563320   0.500000
Nb      0.119900   0.559950   0.500000
Nb      0.440050   0.559950   0.500000
Nb      0.440050   0.880100   0.500000
Se      0.221160   0.110580   0.406662
Se      0.889420   0.110580   0.406662
Se      0.889420   0.778840   0.406662
Se      0.221160   0.110580   0.593338
Se      0.889420   0.110580   0.593338
Se      0.889420   0.778840   0.593338
Se      0.555230   0.110460   0.410797
Se      0.889540   0.444770   0.410797
Se      0.555230   0.444770   0.410797
Se      0.555230   0.110460   0.589203
Se      0.889540   0.444770   0.589203
Se      0.555230   0.444770   0.589203
Se      0.220537   0.441073   0.408351
Se      0.558927   0.779463   0.408351
Se      0.220537   0.779463   0.408351
Se      0.220537   0.441073   0.591649
Se      0.558927   0.779463   0.591649
Se      0.220537   0.779463   0.591649
end atoms_frac


bands_plot = true

begin kpoint_path
M 0.0000000000    1.5     0.0000000000  G 0.0000000000     0.0000000000     0.0000000000
G 0.0000000000    0.0000000000     0.0000000000  K 1     1     0.0000000000
K 1    1     0.0000000000  M 0.0000000000     1.5     0.0000000000
end kpoint_path

mp_grid           = 16 16 1
begin kpoints
0.00000000  0.00000000  0.00000000  3.906250e-03
0.00000000  0.06250000  0.00000000  3.906250e-03
0.00000000  0.12500000  0.00000000  3.906250e-03
0.00000000  0.18750000  0.00000000  3.906250e-03
0.00000000  0.25000000  0.00000000  3.906250e-03
0.00000000  0.31250000  0.00000000  3.906250e-03
0.00000000  0.37500000  0.00000000  3.906250e-03
0.00000000  0.43750000  0.00000000  3.906250e-03
0.00000000  0.50000000  0.00000000  3.906250e-03
0.00000000  0.56250000  0.00000000  3.906250e-03
0.00000000  0.62500000  0.00000000  3.906250e-03
0.00000000  0.68750000  0.00000000  3.906250e-03
0.00000000  0.75000000  0.00000000  3.906250e-03
0.00000000  0.81250000  0.00000000  3.906250e-03
0.00000000  0.87500000  0.00000000  3.906250e-03
0.00000000  0.93750000  0.00000000  3.906250e-03
0.06250000  0.00000000  0.00000000  3.906250e-03
0.06250000  0.06250000  0.00000000  3.906250e-03
0.06250000  0.12500000  0.00000000  3.906250e-03
0.06250000  0.18750000  0.00000000  3.906250e-03
0.06250000  0.25000000  0.00000000  3.906250e-03
0.06250000  0.31250000  0.00000000  3.906250e-03
0.06250000  0.37500000  0.00000000  3.906250e-03
0.06250000  0.43750000  0.00000000  3.906250e-03
0.06250000  0.50000000  0.00000000  3.906250e-03
0.06250000  0.56250000  0.00000000  3.906250e-03
0.06250000  0.62500000  0.00000000  3.906250e-03
0.06250000  0.68750000  0.00000000  3.906250e-03
0.06250000  0.75000000  0.00000000  3.906250e-03
0.06250000  0.81250000  0.00000000  3.906250e-03
0.06250000  0.87500000  0.00000000  3.906250e-03
0.06250000  0.93750000  0.00000000  3.906250e-03
0.12500000  0.00000000  0.00000000  3.906250e-03
0.12500000  0.06250000  0.00000000  3.906250e-03
0.12500000  0.12500000  0.00000000  3.906250e-03
0.12500000  0.18750000  0.00000000  3.906250e-03
0.12500000  0.25000000  0.00000000  3.906250e-03
0.12500000  0.31250000  0.00000000  3.906250e-03
0.12500000  0.37500000  0.00000000  3.906250e-03
0.12500000  0.43750000  0.00000000  3.906250e-03
0.12500000  0.50000000  0.00000000  3.906250e-03
0.12500000  0.56250000  0.00000000  3.906250e-03
0.12500000  0.62500000  0.00000000  3.906250e-03
0.12500000  0.68750000  0.00000000  3.906250e-03
0.12500000  0.75000000  0.00000000  3.906250e-03
0.12500000  0.81250000  0.00000000  3.906250e-03
0.12500000  0.87500000  0.00000000  3.906250e-03
0.12500000  0.93750000  0.00000000  3.906250e-03
0.18750000  0.00000000  0.00000000  3.906250e-03
0.18750000  0.06250000  0.00000000  3.906250e-03
0.18750000  0.12500000  0.00000000  3.906250e-03
0.18750000  0.18750000  0.00000000  3.906250e-03
0.18750000  0.25000000  0.00000000  3.906250e-03
0.18750000  0.31250000  0.00000000  3.906250e-03
0.18750000  0.37500000  0.00000000  3.906250e-03
0.18750000  0.43750000  0.00000000  3.906250e-03
0.18750000  0.50000000  0.00000000  3.906250e-03
0.18750000  0.56250000  0.00000000  3.906250e-03
0.18750000  0.62500000  0.00000000  3.906250e-03
0.18750000  0.68750000  0.00000000  3.906250e-03
0.18750000  0.75000000  0.00000000  3.906250e-03
0.18750000  0.81250000  0.00000000  3.906250e-03
0.18750000  0.87500000  0.00000000  3.906250e-03
0.18750000  0.93750000  0.00000000  3.906250e-03
0.25000000  0.00000000  0.00000000  3.906250e-03
0.25000000  0.06250000  0.00000000  3.906250e-03
0.25000000  0.12500000  0.00000000  3.906250e-03
0.25000000  0.18750000  0.00000000  3.906250e-03
0.25000000  0.25000000  0.00000000  3.906250e-03
0.25000000  0.31250000  0.00000000  3.906250e-03
0.25000000  0.37500000  0.00000000  3.906250e-03
0.25000000  0.43750000  0.00000000  3.906250e-03
0.25000000  0.50000000  0.00000000  3.906250e-03
0.25000000  0.56250000  0.00000000  3.906250e-03
0.25000000  0.62500000  0.00000000  3.906250e-03
0.25000000  0.68750000  0.00000000  3.906250e-03
0.25000000  0.75000000  0.00000000  3.906250e-03
0.25000000  0.81250000  0.00000000  3.906250e-03
0.25000000  0.87500000  0.00000000  3.906250e-03
0.25000000  0.93750000  0.00000000  3.906250e-03
0.31250000  0.00000000  0.00000000  3.906250e-03
0.31250000  0.06250000  0.00000000  3.906250e-03
0.31250000  0.12500000  0.00000000  3.906250e-03
0.31250000  0.18750000  0.00000000  3.906250e-03
0.31250000  0.25000000  0.00000000  3.906250e-03
0.31250000  0.31250000  0.00000000  3.906250e-03
0.31250000  0.37500000  0.00000000  3.906250e-03
0.31250000  0.43750000  0.00000000  3.906250e-03
0.31250000  0.50000000  0.00000000  3.906250e-03
0.31250000  0.56250000  0.00000000  3.906250e-03
0.31250000  0.62500000  0.00000000  3.906250e-03
0.31250000  0.68750000  0.00000000  3.906250e-03
0.31250000  0.75000000  0.00000000  3.906250e-03
0.31250000  0.81250000  0.00000000  3.906250e-03
0.31250000  0.87500000  0.00000000  3.906250e-03
0.31250000  0.93750000  0.00000000  3.906250e-03
0.37500000  0.00000000  0.00000000  3.906250e-03
0.37500000  0.06250000  0.00000000  3.906250e-03
0.37500000  0.12500000  0.00000000  3.906250e-03
0.37500000  0.18750000  0.00000000  3.906250e-03
0.37500000  0.25000000  0.00000000  3.906250e-03
0.37500000  0.31250000  0.00000000  3.906250e-03
0.37500000  0.37500000  0.00000000  3.906250e-03
0.37500000  0.43750000  0.00000000  3.906250e-03
0.37500000  0.50000000  0.00000000  3.906250e-03
0.37500000  0.56250000  0.00000000  3.906250e-03
0.37500000  0.62500000  0.00000000  3.906250e-03
0.37500000  0.68750000  0.00000000  3.906250e-03
0.37500000  0.75000000  0.00000000  3.906250e-03
0.37500000  0.81250000  0.00000000  3.906250e-03
0.37500000  0.87500000  0.00000000  3.906250e-03
0.37500000  0.93750000  0.00000000  3.906250e-03
0.43750000  0.00000000  0.00000000  3.906250e-03
0.43750000  0.06250000  0.00000000  3.906250e-03
0.43750000  0.12500000  0.00000000  3.906250e-03
0.43750000  0.18750000  0.00000000  3.906250e-03
0.43750000  0.25000000  0.00000000  3.906250e-03
0.43750000  0.31250000  0.00000000  3.906250e-03
0.43750000  0.37500000  0.00000000  3.906250e-03
0.43750000  0.43750000  0.00000000  3.906250e-03
0.43750000  0.50000000  0.00000000  3.906250e-03
0.43750000  0.56250000  0.00000000  3.906250e-03
0.43750000  0.62500000  0.00000000  3.906250e-03
0.43750000  0.68750000  0.00000000  3.906250e-03
0.43750000  0.75000000  0.00000000  3.906250e-03
0.43750000  0.81250000  0.00000000  3.906250e-03
0.43750000  0.87500000  0.00000000  3.906250e-03
0.43750000  0.93750000  0.00000000  3.906250e-03
0.50000000  0.00000000  0.00000000  3.906250e-03
0.50000000  0.06250000  0.00000000  3.906250e-03
0.50000000  0.12500000  0.00000000  3.906250e-03
0.50000000  0.18750000  0.00000000  3.906250e-03
0.50000000  0.25000000  0.00000000  3.906250e-03
0.50000000  0.31250000  0.00000000  3.906250e-03
0.50000000  0.37500000  0.00000000  3.906250e-03
0.50000000  0.43750000  0.00000000  3.906250e-03
0.50000000  0.50000000  0.00000000  3.906250e-03
0.50000000  0.56250000  0.00000000  3.906250e-03
0.50000000  0.62500000  0.00000000  3.906250e-03
0.50000000  0.68750000  0.00000000  3.906250e-03
0.50000000  0.75000000  0.00000000  3.906250e-03
0.50000000  0.81250000  0.00000000  3.906250e-03
0.50000000  0.87500000  0.00000000  3.906250e-03
0.50000000  0.93750000  0.00000000  3.906250e-03
0.56250000  0.00000000  0.00000000  3.906250e-03
0.56250000  0.06250000  0.00000000  3.906250e-03
0.56250000  0.12500000  0.00000000  3.906250e-03
0.56250000  0.18750000  0.00000000  3.906250e-03
0.56250000  0.25000000  0.00000000  3.906250e-03
0.56250000  0.31250000  0.00000000  3.906250e-03
0.56250000  0.37500000  0.00000000  3.906250e-03
0.56250000  0.43750000  0.00000000  3.906250e-03
0.56250000  0.50000000  0.00000000  3.906250e-03
0.56250000  0.56250000  0.00000000  3.906250e-03
0.56250000  0.62500000  0.00000000  3.906250e-03
0.56250000  0.68750000  0.00000000  3.906250e-03
0.56250000  0.75000000  0.00000000  3.906250e-03
0.56250000  0.81250000  0.00000000  3.906250e-03
0.56250000  0.87500000  0.00000000  3.906250e-03
0.56250000  0.93750000  0.00000000  3.906250e-03
0.62500000  0.00000000  0.00000000  3.906250e-03
0.62500000  0.06250000  0.00000000  3.906250e-03
0.62500000  0.12500000  0.00000000  3.906250e-03
0.62500000  0.18750000  0.00000000  3.906250e-03
0.62500000  0.25000000  0.00000000  3.906250e-03
0.62500000  0.31250000  0.00000000  3.906250e-03
0.62500000  0.37500000  0.00000000  3.906250e-03
0.62500000  0.43750000  0.00000000  3.906250e-03
0.62500000  0.50000000  0.00000000  3.906250e-03
0.62500000  0.56250000  0.00000000  3.906250e-03
0.62500000  0.62500000  0.00000000  3.906250e-03
0.62500000  0.68750000  0.00000000  3.906250e-03
0.62500000  0.75000000  0.00000000  3.906250e-03
0.62500000  0.81250000  0.00000000  3.906250e-03
0.62500000  0.87500000  0.00000000  3.906250e-03
0.62500000  0.93750000  0.00000000  3.906250e-03
0.68750000  0.00000000  0.00000000  3.906250e-03
0.68750000  0.06250000  0.00000000  3.906250e-03
0.68750000  0.12500000  0.00000000  3.906250e-03
0.68750000  0.18750000  0.00000000  3.906250e-03
0.68750000  0.25000000  0.00000000  3.906250e-03
0.68750000  0.31250000  0.00000000  3.906250e-03
0.68750000  0.37500000  0.00000000  3.906250e-03
0.68750000  0.43750000  0.00000000  3.906250e-03
0.68750000  0.50000000  0.00000000  3.906250e-03
0.68750000  0.56250000  0.00000000  3.906250e-03
0.68750000  0.62500000  0.00000000  3.906250e-03
0.68750000  0.68750000  0.00000000  3.906250e-03
0.68750000  0.75000000  0.00000000  3.906250e-03
0.68750000  0.81250000  0.00000000  3.906250e-03
0.68750000  0.87500000  0.00000000  3.906250e-03
0.68750000  0.93750000  0.00000000  3.906250e-03
0.75000000  0.00000000  0.00000000  3.906250e-03
0.75000000  0.06250000  0.00000000  3.906250e-03
0.75000000  0.12500000  0.00000000  3.906250e-03
0.75000000  0.18750000  0.00000000  3.906250e-03
0.75000000  0.25000000  0.00000000  3.906250e-03
0.75000000  0.31250000  0.00000000  3.906250e-03
0.75000000  0.37500000  0.00000000  3.906250e-03
0.75000000  0.43750000  0.00000000  3.906250e-03
0.75000000  0.50000000  0.00000000  3.906250e-03
0.75000000  0.56250000  0.00000000  3.906250e-03
0.75000000  0.62500000  0.00000000  3.906250e-03
0.75000000  0.68750000  0.00000000  3.906250e-03
0.75000000  0.75000000  0.00000000  3.906250e-03
0.75000000  0.81250000  0.00000000  3.906250e-03
0.75000000  0.87500000  0.00000000  3.906250e-03
0.75000000  0.93750000  0.00000000  3.906250e-03
0.81250000  0.00000000  0.00000000  3.906250e-03
0.81250000  0.06250000  0.00000000  3.906250e-03
0.81250000  0.12500000  0.00000000  3.906250e-03
0.81250000  0.18750000  0.00000000  3.906250e-03
0.81250000  0.25000000  0.00000000  3.906250e-03
0.81250000  0.31250000  0.00000000  3.906250e-03
0.81250000  0.37500000  0.00000000  3.906250e-03
0.81250000  0.43750000  0.00000000  3.906250e-03
0.81250000  0.50000000  0.00000000  3.906250e-03
0.81250000  0.56250000  0.00000000  3.906250e-03
0.81250000  0.62500000  0.00000000  3.906250e-03
0.81250000  0.68750000  0.00000000  3.906250e-03
0.81250000  0.75000000  0.00000000  3.906250e-03
0.81250000  0.81250000  0.00000000  3.906250e-03
0.81250000  0.87500000  0.00000000  3.906250e-03
0.81250000  0.93750000  0.00000000  3.906250e-03
0.87500000  0.00000000  0.00000000  3.906250e-03
0.87500000  0.06250000  0.00000000  3.906250e-03
0.87500000  0.12500000  0.00000000  3.906250e-03
0.87500000  0.18750000  0.00000000  3.906250e-03
0.87500000  0.25000000  0.00000000  3.906250e-03
0.87500000  0.31250000  0.00000000  3.906250e-03
0.87500000  0.37500000  0.00000000  3.906250e-03
0.87500000  0.43750000  0.00000000  3.906250e-03
0.87500000  0.50000000  0.00000000  3.906250e-03
0.87500000  0.56250000  0.00000000  3.906250e-03
0.87500000  0.62500000  0.00000000  3.906250e-03
0.87500000  0.68750000  0.00000000  3.906250e-03
0.87500000  0.75000000  0.00000000  3.906250e-03
0.87500000  0.81250000  0.00000000  3.906250e-03
0.87500000  0.87500000  0.00000000  3.906250e-03
0.87500000  0.93750000  0.00000000  3.906250e-03
0.93750000  0.00000000  0.00000000  3.906250e-03
0.93750000  0.06250000  0.00000000  3.906250e-03
0.93750000  0.12500000  0.00000000  3.906250e-03
0.93750000  0.18750000  0.00000000  3.906250e-03
0.93750000  0.25000000  0.00000000  3.906250e-03
0.93750000  0.31250000  0.00000000  3.906250e-03
0.93750000  0.37500000  0.00000000  3.906250e-03
0.93750000  0.43750000  0.00000000  3.906250e-03
0.93750000  0.50000000  0.00000000  3.906250e-03
0.93750000  0.56250000  0.00000000  3.906250e-03
0.93750000  0.62500000  0.00000000  3.906250e-03
0.93750000  0.68750000  0.00000000  3.906250e-03
0.93750000  0.75000000  0.00000000  3.906250e-03
0.93750000  0.81250000  0.00000000  3.906250e-03
0.93750000  0.87500000  0.00000000  3.906250e-03
0.93750000  0.93750000  0.00000000  3.906250e-03
end kpoints
