&CONTROL
    calculation = "nscf"
    restart_mode='from_scratch'
    outdir="./outdir"
    prefix="graphene"
    pseudo_dir  = "~/pseudos"
/

&SYSTEM
    ibrav = 0
    degauss     =  1.00000e-02
    ecutrho     =  3.61681e+02
    ecutwfc     =  4.01868e+01
    nat         = 2
    ntyp        = 1
    occupations               = "smearing"
    smearing                  = "gaussian"
    nosym                  = .true.
/

&ELECTRONS
    conv_thr         =  1.00000e-08
    mixing_beta      =  5.00000e-01
/


CELL_PARAMETERS {angstrom}
  2.467720   0.000000   0.000000
 -1.233860   2.137108   0.000000
  0.000000   0.000000   4.342520

ATOMIC_SPECIES
C      12.01070  C.pbe-n-kjpaw_psl.1.0.0.UPF

ATOMIC_POSITIONS {crystal}
C       0.000000   0.000000   0.500000
C       0.666668   0.333334   0.500000


K_POINTS crystal
256
  0.00000000  0.00000000  0.00000000  3.906250e-03
  0.00000000  0.06250000  0.00000000  3.906250e-03
  0.00000000  0.12500000  0.00000000  3.906250e-03
  0.00000000  0.18750000  0.00000000  3.906250e-03
  0.00000000  0.25000000  0.00000000  3.906250e-03
  0.00000000  0.31250000  0.00000000  3.906250e-03
  0.00000000  0.37500000  0.00000000  3.906250e-03
  0.00000000  0.43750000  0.00000000  3.906250e-03
  0.00000000  0.50000000  0.00000000  3.906250e-03
  0.00000000  0.56250000  0.00000000  3.906250e-03
  0.00000000  0.62500000  0.00000000  3.906250e-03
  0.00000000  0.68750000  0.00000000  3.906250e-03
  0.00000000  0.75000000  0.00000000  3.906250e-03
  0.00000000  0.81250000  0.00000000  3.906250e-03
  0.00000000  0.87500000  0.00000000  3.906250e-03
  0.00000000  0.93750000  0.00000000  3.906250e-03
  0.06250000  0.00000000  0.00000000  3.906250e-03
  0.06250000  0.06250000  0.00000000  3.906250e-03
  0.06250000  0.12500000  0.00000000  3.906250e-03
  0.06250000  0.18750000  0.00000000  3.906250e-03
  0.06250000  0.25000000  0.00000000  3.906250e-03
  0.06250000  0.31250000  0.00000000  3.906250e-03
  0.06250000  0.37500000  0.00000000  3.906250e-03
  0.06250000  0.43750000  0.00000000  3.906250e-03
  0.06250000  0.50000000  0.00000000  3.906250e-03
  0.06250000  0.56250000  0.00000000  3.906250e-03
  0.06250000  0.62500000  0.00000000  3.906250e-03
  0.06250000  0.68750000  0.00000000  3.906250e-03
  0.06250000  0.75000000  0.00000000  3.906250e-03
  0.06250000  0.81250000  0.00000000  3.906250e-03
  0.06250000  0.87500000  0.00000000  3.906250e-03
  0.06250000  0.93750000  0.00000000  3.906250e-03
  0.12500000  0.00000000  0.00000000  3.906250e-03
  0.12500000  0.06250000  0.00000000  3.906250e-03
  0.12500000  0.12500000  0.00000000  3.906250e-03
  0.12500000  0.18750000  0.00000000  3.906250e-03
  0.12500000  0.25000000  0.00000000  3.906250e-03
  0.12500000  0.31250000  0.00000000  3.906250e-03
  0.12500000  0.37500000  0.00000000  3.906250e-03
  0.12500000  0.43750000  0.00000000  3.906250e-03
  0.12500000  0.50000000  0.00000000  3.906250e-03
  0.12500000  0.56250000  0.00000000  3.906250e-03
  0.12500000  0.62500000  0.00000000  3.906250e-03
  0.12500000  0.68750000  0.00000000  3.906250e-03
  0.12500000  0.75000000  0.00000000  3.906250e-03
  0.12500000  0.81250000  0.00000000  3.906250e-03
  0.12500000  0.87500000  0.00000000  3.906250e-03
  0.12500000  0.93750000  0.00000000  3.906250e-03
  0.18750000  0.00000000  0.00000000  3.906250e-03
  0.18750000  0.06250000  0.00000000  3.906250e-03
  0.18750000  0.12500000  0.00000000  3.906250e-03
  0.18750000  0.18750000  0.00000000  3.906250e-03
  0.18750000  0.25000000  0.00000000  3.906250e-03
  0.18750000  0.31250000  0.00000000  3.906250e-03
  0.18750000  0.37500000  0.00000000  3.906250e-03
  0.18750000  0.43750000  0.00000000  3.906250e-03
  0.18750000  0.50000000  0.00000000  3.906250e-03
  0.18750000  0.56250000  0.00000000  3.906250e-03
  0.18750000  0.62500000  0.00000000  3.906250e-03
  0.18750000  0.68750000  0.00000000  3.906250e-03
  0.18750000  0.75000000  0.00000000  3.906250e-03
  0.18750000  0.81250000  0.00000000  3.906250e-03
  0.18750000  0.87500000  0.00000000  3.906250e-03
  0.18750000  0.93750000  0.00000000  3.906250e-03
  0.25000000  0.00000000  0.00000000  3.906250e-03
  0.25000000  0.06250000  0.00000000  3.906250e-03
  0.25000000  0.12500000  0.00000000  3.906250e-03
  0.25000000  0.18750000  0.00000000  3.906250e-03
  0.25000000  0.25000000  0.00000000  3.906250e-03
  0.25000000  0.31250000  0.00000000  3.906250e-03
  0.25000000  0.37500000  0.00000000  3.906250e-03
  0.25000000  0.43750000  0.00000000  3.906250e-03
  0.25000000  0.50000000  0.00000000  3.906250e-03
  0.25000000  0.56250000  0.00000000  3.906250e-03
  0.25000000  0.62500000  0.00000000  3.906250e-03
  0.25000000  0.68750000  0.00000000  3.906250e-03
  0.25000000  0.75000000  0.00000000  3.906250e-03
  0.25000000  0.81250000  0.00000000  3.906250e-03
  0.25000000  0.87500000  0.00000000  3.906250e-03
  0.25000000  0.93750000  0.00000000  3.906250e-03
  0.31250000  0.00000000  0.00000000  3.906250e-03
  0.31250000  0.06250000  0.00000000  3.906250e-03
  0.31250000  0.12500000  0.00000000  3.906250e-03
  0.31250000  0.18750000  0.00000000  3.906250e-03
  0.31250000  0.25000000  0.00000000  3.906250e-03
  0.31250000  0.31250000  0.00000000  3.906250e-03
  0.31250000  0.37500000  0.00000000  3.906250e-03
  0.31250000  0.43750000  0.00000000  3.906250e-03
  0.31250000  0.50000000  0.00000000  3.906250e-03
  0.31250000  0.56250000  0.00000000  3.906250e-03
  0.31250000  0.62500000  0.00000000  3.906250e-03
  0.31250000  0.68750000  0.00000000  3.906250e-03
  0.31250000  0.75000000  0.00000000  3.906250e-03
  0.31250000  0.81250000  0.00000000  3.906250e-03
  0.31250000  0.87500000  0.00000000  3.906250e-03
  0.31250000  0.93750000  0.00000000  3.906250e-03
  0.37500000  0.00000000  0.00000000  3.906250e-03
  0.37500000  0.06250000  0.00000000  3.906250e-03
  0.37500000  0.12500000  0.00000000  3.906250e-03
  0.37500000  0.18750000  0.00000000  3.906250e-03
  0.37500000  0.25000000  0.00000000  3.906250e-03
  0.37500000  0.31250000  0.00000000  3.906250e-03
  0.37500000  0.37500000  0.00000000  3.906250e-03
  0.37500000  0.43750000  0.00000000  3.906250e-03
  0.37500000  0.50000000  0.00000000  3.906250e-03
  0.37500000  0.56250000  0.00000000  3.906250e-03
  0.37500000  0.62500000  0.00000000  3.906250e-03
  0.37500000  0.68750000  0.00000000  3.906250e-03
  0.37500000  0.75000000  0.00000000  3.906250e-03
  0.37500000  0.81250000  0.00000000  3.906250e-03
  0.37500000  0.87500000  0.00000000  3.906250e-03
  0.37500000  0.93750000  0.00000000  3.906250e-03
  0.43750000  0.00000000  0.00000000  3.906250e-03
  0.43750000  0.06250000  0.00000000  3.906250e-03
  0.43750000  0.12500000  0.00000000  3.906250e-03
  0.43750000  0.18750000  0.00000000  3.906250e-03
  0.43750000  0.25000000  0.00000000  3.906250e-03
  0.43750000  0.31250000  0.00000000  3.906250e-03
  0.43750000  0.37500000  0.00000000  3.906250e-03
  0.43750000  0.43750000  0.00000000  3.906250e-03
  0.43750000  0.50000000  0.00000000  3.906250e-03
  0.43750000  0.56250000  0.00000000  3.906250e-03
  0.43750000  0.62500000  0.00000000  3.906250e-03
  0.43750000  0.68750000  0.00000000  3.906250e-03
  0.43750000  0.75000000  0.00000000  3.906250e-03
  0.43750000  0.81250000  0.00000000  3.906250e-03
  0.43750000  0.87500000  0.00000000  3.906250e-03
  0.43750000  0.93750000  0.00000000  3.906250e-03
  0.50000000  0.00000000  0.00000000  3.906250e-03
  0.50000000  0.06250000  0.00000000  3.906250e-03
  0.50000000  0.12500000  0.00000000  3.906250e-03
  0.50000000  0.18750000  0.00000000  3.906250e-03
  0.50000000  0.25000000  0.00000000  3.906250e-03
  0.50000000  0.31250000  0.00000000  3.906250e-03
  0.50000000  0.37500000  0.00000000  3.906250e-03
  0.50000000  0.43750000  0.00000000  3.906250e-03
  0.50000000  0.50000000  0.00000000  3.906250e-03
  0.50000000  0.56250000  0.00000000  3.906250e-03
  0.50000000  0.62500000  0.00000000  3.906250e-03
  0.50000000  0.68750000  0.00000000  3.906250e-03
  0.50000000  0.75000000  0.00000000  3.906250e-03
  0.50000000  0.81250000  0.00000000  3.906250e-03
  0.50000000  0.87500000  0.00000000  3.906250e-03
  0.50000000  0.93750000  0.00000000  3.906250e-03
  0.56250000  0.00000000  0.00000000  3.906250e-03
  0.56250000  0.06250000  0.00000000  3.906250e-03
  0.56250000  0.12500000  0.00000000  3.906250e-03
  0.56250000  0.18750000  0.00000000  3.906250e-03
  0.56250000  0.25000000  0.00000000  3.906250e-03
  0.56250000  0.31250000  0.00000000  3.906250e-03
  0.56250000  0.37500000  0.00000000  3.906250e-03
  0.56250000  0.43750000  0.00000000  3.906250e-03
  0.56250000  0.50000000  0.00000000  3.906250e-03
  0.56250000  0.56250000  0.00000000  3.906250e-03
  0.56250000  0.62500000  0.00000000  3.906250e-03
  0.56250000  0.68750000  0.00000000  3.906250e-03
  0.56250000  0.75000000  0.00000000  3.906250e-03
  0.56250000  0.81250000  0.00000000  3.906250e-03
  0.56250000  0.87500000  0.00000000  3.906250e-03
  0.56250000  0.93750000  0.00000000  3.906250e-03
  0.62500000  0.00000000  0.00000000  3.906250e-03
  0.62500000  0.06250000  0.00000000  3.906250e-03
  0.62500000  0.12500000  0.00000000  3.906250e-03
  0.62500000  0.18750000  0.00000000  3.906250e-03
  0.62500000  0.25000000  0.00000000  3.906250e-03
  0.62500000  0.31250000  0.00000000  3.906250e-03
  0.62500000  0.37500000  0.00000000  3.906250e-03
  0.62500000  0.43750000  0.00000000  3.906250e-03
  0.62500000  0.50000000  0.00000000  3.906250e-03
  0.62500000  0.56250000  0.00000000  3.906250e-03
  0.62500000  0.62500000  0.00000000  3.906250e-03
  0.62500000  0.68750000  0.00000000  3.906250e-03
  0.62500000  0.75000000  0.00000000  3.906250e-03
  0.62500000  0.81250000  0.00000000  3.906250e-03
  0.62500000  0.87500000  0.00000000  3.906250e-03
  0.62500000  0.93750000  0.00000000  3.906250e-03
  0.68750000  0.00000000  0.00000000  3.906250e-03
  0.68750000  0.06250000  0.00000000  3.906250e-03
  0.68750000  0.12500000  0.00000000  3.906250e-03
  0.68750000  0.18750000  0.00000000  3.906250e-03
  0.68750000  0.25000000  0.00000000  3.906250e-03
  0.68750000  0.31250000  0.00000000  3.906250e-03
  0.68750000  0.37500000  0.00000000  3.906250e-03
  0.68750000  0.43750000  0.00000000  3.906250e-03
  0.68750000  0.50000000  0.00000000  3.906250e-03
  0.68750000  0.56250000  0.00000000  3.906250e-03
  0.68750000  0.62500000  0.00000000  3.906250e-03
  0.68750000  0.68750000  0.00000000  3.906250e-03
  0.68750000  0.75000000  0.00000000  3.906250e-03
  0.68750000  0.81250000  0.00000000  3.906250e-03
  0.68750000  0.87500000  0.00000000  3.906250e-03
  0.68750000  0.93750000  0.00000000  3.906250e-03
  0.75000000  0.00000000  0.00000000  3.906250e-03
  0.75000000  0.06250000  0.00000000  3.906250e-03
  0.75000000  0.12500000  0.00000000  3.906250e-03
  0.75000000  0.18750000  0.00000000  3.906250e-03
  0.75000000  0.25000000  0.00000000  3.906250e-03
  0.75000000  0.31250000  0.00000000  3.906250e-03
  0.75000000  0.37500000  0.00000000  3.906250e-03
  0.75000000  0.43750000  0.00000000  3.906250e-03
  0.75000000  0.50000000  0.00000000  3.906250e-03
  0.75000000  0.56250000  0.00000000  3.906250e-03
  0.75000000  0.62500000  0.00000000  3.906250e-03
  0.75000000  0.68750000  0.00000000  3.906250e-03
  0.75000000  0.75000000  0.00000000  3.906250e-03
  0.75000000  0.81250000  0.00000000  3.906250e-03
  0.75000000  0.87500000  0.00000000  3.906250e-03
  0.75000000  0.93750000  0.00000000  3.906250e-03
  0.81250000  0.00000000  0.00000000  3.906250e-03
  0.81250000  0.06250000  0.00000000  3.906250e-03
  0.81250000  0.12500000  0.00000000  3.906250e-03
  0.81250000  0.18750000  0.00000000  3.906250e-03
  0.81250000  0.25000000  0.00000000  3.906250e-03
  0.81250000  0.31250000  0.00000000  3.906250e-03
  0.81250000  0.37500000  0.00000000  3.906250e-03
  0.81250000  0.43750000  0.00000000  3.906250e-03
  0.81250000  0.50000000  0.00000000  3.906250e-03
  0.81250000  0.56250000  0.00000000  3.906250e-03
  0.81250000  0.62500000  0.00000000  3.906250e-03
  0.81250000  0.68750000  0.00000000  3.906250e-03
  0.81250000  0.75000000  0.00000000  3.906250e-03
  0.81250000  0.81250000  0.00000000  3.906250e-03
  0.81250000  0.87500000  0.00000000  3.906250e-03
  0.81250000  0.93750000  0.00000000  3.906250e-03
  0.87500000  0.00000000  0.00000000  3.906250e-03
  0.87500000  0.06250000  0.00000000  3.906250e-03
  0.87500000  0.12500000  0.00000000  3.906250e-03
  0.87500000  0.18750000  0.00000000  3.906250e-03
  0.87500000  0.25000000  0.00000000  3.906250e-03
  0.87500000  0.31250000  0.00000000  3.906250e-03
  0.87500000  0.37500000  0.00000000  3.906250e-03
  0.87500000  0.43750000  0.00000000  3.906250e-03
  0.87500000  0.50000000  0.00000000  3.906250e-03
  0.87500000  0.56250000  0.00000000  3.906250e-03
  0.87500000  0.62500000  0.00000000  3.906250e-03
  0.87500000  0.68750000  0.00000000  3.906250e-03
  0.87500000  0.75000000  0.00000000  3.906250e-03
  0.87500000  0.81250000  0.00000000  3.906250e-03
  0.87500000  0.87500000  0.00000000  3.906250e-03
  0.87500000  0.93750000  0.00000000  3.906250e-03
  0.93750000  0.00000000  0.00000000  3.906250e-03
  0.93750000  0.06250000  0.00000000  3.906250e-03
  0.93750000  0.12500000  0.00000000  3.906250e-03
  0.93750000  0.18750000  0.00000000  3.906250e-03
  0.93750000  0.25000000  0.00000000  3.906250e-03
  0.93750000  0.31250000  0.00000000  3.906250e-03
  0.93750000  0.37500000  0.00000000  3.906250e-03
  0.93750000  0.43750000  0.00000000  3.906250e-03
  0.93750000  0.50000000  0.00000000  3.906250e-03
  0.93750000  0.56250000  0.00000000  3.906250e-03
  0.93750000  0.62500000  0.00000000  3.906250e-03
  0.93750000  0.68750000  0.00000000  3.906250e-03
  0.93750000  0.75000000  0.00000000  3.906250e-03
  0.93750000  0.81250000  0.00000000  3.906250e-03
  0.93750000  0.87500000  0.00000000  3.906250e-03
  0.93750000  0.93750000  0.00000000  3.906250e-03

