&bands
outdir = './outdir'
prefix = 'Sn'
filband = 'Sn.bands.dat'
!plot_2d=.true.
/
