&CONTROL
    calculation  = "nscf"
    restart_mode='from_scratch'
    prefix="nbse2"
    pseudo_dir   = "../Pseudos/"
    outdir="./outdir"
/


&SYSTEM
    a                         =  3.48940e+00
    c                         =  2.33679e+01
    degauss                   =  1.00000e-02
    ecutwfc                   =  5.52247e+01
    ibrav                     = 4
    lspinorb                  = .TRUE.
    nat                       = 3
    noncolin                  = .TRUE.
    ntyp                      = 2
    occupations               = "smearing"
    smearing                  = "gaussian"
/

&ELECTRONS
    conv_thr         =  1.00000e-08
    mixing_beta      =  4.00000e-01
/



ATOMIC_SPECIES
Se     78.96000  Se.rel-pbe-n-kjpaw_psl.0.2.UPF
Nb     92.90638  Nb.rel-pbe-spn-kjpaw_psl.1.0.0.UPF

ATOMIC_POSITIONS {angstrom}
Se     -0.000000   2.014608  13.367933
Nb      0.000000   0.000000  11.683967  0 0 0
Se     -0.000000   2.014608  10.000000  0 0 0

K_POINTS crystal
256
0.00000000  0.00000000  0.00000000  3.906250e-03
0.00000000  0.06250000  0.00000000  3.906250e-03
0.00000000  0.12500000  0.00000000  3.906250e-03
0.00000000  0.18750000  0.00000000  3.906250e-03
0.00000000  0.25000000  0.00000000  3.906250e-03
0.00000000  0.31250000  0.00000000  3.906250e-03
0.00000000  0.37500000  0.00000000  3.906250e-03
0.00000000  0.43750000  0.00000000  3.906250e-03
0.00000000  0.50000000  0.00000000  3.906250e-03
0.00000000  0.56250000  0.00000000  3.906250e-03
0.00000000  0.62500000  0.00000000  3.906250e-03
0.00000000  0.68750000  0.00000000  3.906250e-03
0.00000000  0.75000000  0.00000000  3.906250e-03
0.00000000  0.81250000  0.00000000  3.906250e-03
0.00000000  0.87500000  0.00000000  3.906250e-03
0.00000000  0.93750000  0.00000000  3.906250e-03
0.06250000  0.00000000  0.00000000  3.906250e-03
0.06250000  0.06250000  0.00000000  3.906250e-03
0.06250000  0.12500000  0.00000000  3.906250e-03
0.06250000  0.18750000  0.00000000  3.906250e-03
0.06250000  0.25000000  0.00000000  3.906250e-03
0.06250000  0.31250000  0.00000000  3.906250e-03
0.06250000  0.37500000  0.00000000  3.906250e-03
0.06250000  0.43750000  0.00000000  3.906250e-03
0.06250000  0.50000000  0.00000000  3.906250e-03
0.06250000  0.56250000  0.00000000  3.906250e-03
0.06250000  0.62500000  0.00000000  3.906250e-03
0.06250000  0.68750000  0.00000000  3.906250e-03
0.06250000  0.75000000  0.00000000  3.906250e-03
0.06250000  0.81250000  0.00000000  3.906250e-03
0.06250000  0.87500000  0.00000000  3.906250e-03
0.06250000  0.93750000  0.00000000  3.906250e-03
0.12500000  0.00000000  0.00000000  3.906250e-03
0.12500000  0.06250000  0.00000000  3.906250e-03
0.12500000  0.12500000  0.00000000  3.906250e-03
0.12500000  0.18750000  0.00000000  3.906250e-03
0.12500000  0.25000000  0.00000000  3.906250e-03
0.12500000  0.31250000  0.00000000  3.906250e-03
0.12500000  0.37500000  0.00000000  3.906250e-03
0.12500000  0.43750000  0.00000000  3.906250e-03
0.12500000  0.50000000  0.00000000  3.906250e-03
0.12500000  0.56250000  0.00000000  3.906250e-03
0.12500000  0.62500000  0.00000000  3.906250e-03
0.12500000  0.68750000  0.00000000  3.906250e-03
0.12500000  0.75000000  0.00000000  3.906250e-03
0.12500000  0.81250000  0.00000000  3.906250e-03
0.12500000  0.87500000  0.00000000  3.906250e-03
0.12500000  0.93750000  0.00000000  3.906250e-03
0.18750000  0.00000000  0.00000000  3.906250e-03
0.18750000  0.06250000  0.00000000  3.906250e-03
0.18750000  0.12500000  0.00000000  3.906250e-03
0.18750000  0.18750000  0.00000000  3.906250e-03
0.18750000  0.25000000  0.00000000  3.906250e-03
0.18750000  0.31250000  0.00000000  3.906250e-03
0.18750000  0.37500000  0.00000000  3.906250e-03
0.18750000  0.43750000  0.00000000  3.906250e-03
0.18750000  0.50000000  0.00000000  3.906250e-03
0.18750000  0.56250000  0.00000000  3.906250e-03
0.18750000  0.62500000  0.00000000  3.906250e-03
0.18750000  0.68750000  0.00000000  3.906250e-03
0.18750000  0.75000000  0.00000000  3.906250e-03
0.18750000  0.81250000  0.00000000  3.906250e-03
0.18750000  0.87500000  0.00000000  3.906250e-03
0.18750000  0.93750000  0.00000000  3.906250e-03
0.25000000  0.00000000  0.00000000  3.906250e-03
0.25000000  0.06250000  0.00000000  3.906250e-03
0.25000000  0.12500000  0.00000000  3.906250e-03
0.25000000  0.18750000  0.00000000  3.906250e-03
0.25000000  0.25000000  0.00000000  3.906250e-03
0.25000000  0.31250000  0.00000000  3.906250e-03
0.25000000  0.37500000  0.00000000  3.906250e-03
0.25000000  0.43750000  0.00000000  3.906250e-03
0.25000000  0.50000000  0.00000000  3.906250e-03
0.25000000  0.56250000  0.00000000  3.906250e-03
0.25000000  0.62500000  0.00000000  3.906250e-03
0.25000000  0.68750000  0.00000000  3.906250e-03
0.25000000  0.75000000  0.00000000  3.906250e-03
0.25000000  0.81250000  0.00000000  3.906250e-03
0.25000000  0.87500000  0.00000000  3.906250e-03
0.25000000  0.93750000  0.00000000  3.906250e-03
0.31250000  0.00000000  0.00000000  3.906250e-03
0.31250000  0.06250000  0.00000000  3.906250e-03
0.31250000  0.12500000  0.00000000  3.906250e-03
0.31250000  0.18750000  0.00000000  3.906250e-03
0.31250000  0.25000000  0.00000000  3.906250e-03
0.31250000  0.31250000  0.00000000  3.906250e-03
0.31250000  0.37500000  0.00000000  3.906250e-03
0.31250000  0.43750000  0.00000000  3.906250e-03
0.31250000  0.50000000  0.00000000  3.906250e-03
0.31250000  0.56250000  0.00000000  3.906250e-03
0.31250000  0.62500000  0.00000000  3.906250e-03
0.31250000  0.68750000  0.00000000  3.906250e-03
0.31250000  0.75000000  0.00000000  3.906250e-03
0.31250000  0.81250000  0.00000000  3.906250e-03
0.31250000  0.87500000  0.00000000  3.906250e-03
0.31250000  0.93750000  0.00000000  3.906250e-03
0.37500000  0.00000000  0.00000000  3.906250e-03
0.37500000  0.06250000  0.00000000  3.906250e-03
0.37500000  0.12500000  0.00000000  3.906250e-03
0.37500000  0.18750000  0.00000000  3.906250e-03
0.37500000  0.25000000  0.00000000  3.906250e-03
0.37500000  0.31250000  0.00000000  3.906250e-03
0.37500000  0.37500000  0.00000000  3.906250e-03
0.37500000  0.43750000  0.00000000  3.906250e-03
0.37500000  0.50000000  0.00000000  3.906250e-03
0.37500000  0.56250000  0.00000000  3.906250e-03
0.37500000  0.62500000  0.00000000  3.906250e-03
0.37500000  0.68750000  0.00000000  3.906250e-03
0.37500000  0.75000000  0.00000000  3.906250e-03
0.37500000  0.81250000  0.00000000  3.906250e-03
0.37500000  0.87500000  0.00000000  3.906250e-03
0.37500000  0.93750000  0.00000000  3.906250e-03
0.43750000  0.00000000  0.00000000  3.906250e-03
0.43750000  0.06250000  0.00000000  3.906250e-03
0.43750000  0.12500000  0.00000000  3.906250e-03
0.43750000  0.18750000  0.00000000  3.906250e-03
0.43750000  0.25000000  0.00000000  3.906250e-03
0.43750000  0.31250000  0.00000000  3.906250e-03
0.43750000  0.37500000  0.00000000  3.906250e-03
0.43750000  0.43750000  0.00000000  3.906250e-03
0.43750000  0.50000000  0.00000000  3.906250e-03
0.43750000  0.56250000  0.00000000  3.906250e-03
0.43750000  0.62500000  0.00000000  3.906250e-03
0.43750000  0.68750000  0.00000000  3.906250e-03
0.43750000  0.75000000  0.00000000  3.906250e-03
0.43750000  0.81250000  0.00000000  3.906250e-03
0.43750000  0.87500000  0.00000000  3.906250e-03
0.43750000  0.93750000  0.00000000  3.906250e-03
0.50000000  0.00000000  0.00000000  3.906250e-03
0.50000000  0.06250000  0.00000000  3.906250e-03
0.50000000  0.12500000  0.00000000  3.906250e-03
0.50000000  0.18750000  0.00000000  3.906250e-03
0.50000000  0.25000000  0.00000000  3.906250e-03
0.50000000  0.31250000  0.00000000  3.906250e-03
0.50000000  0.37500000  0.00000000  3.906250e-03
0.50000000  0.43750000  0.00000000  3.906250e-03
0.50000000  0.50000000  0.00000000  3.906250e-03
0.50000000  0.56250000  0.00000000  3.906250e-03
0.50000000  0.62500000  0.00000000  3.906250e-03
0.50000000  0.68750000  0.00000000  3.906250e-03
0.50000000  0.75000000  0.00000000  3.906250e-03
0.50000000  0.81250000  0.00000000  3.906250e-03
0.50000000  0.87500000  0.00000000  3.906250e-03
0.50000000  0.93750000  0.00000000  3.906250e-03
0.56250000  0.00000000  0.00000000  3.906250e-03
0.56250000  0.06250000  0.00000000  3.906250e-03
0.56250000  0.12500000  0.00000000  3.906250e-03
0.56250000  0.18750000  0.00000000  3.906250e-03
0.56250000  0.25000000  0.00000000  3.906250e-03
0.56250000  0.31250000  0.00000000  3.906250e-03
0.56250000  0.37500000  0.00000000  3.906250e-03
0.56250000  0.43750000  0.00000000  3.906250e-03
0.56250000  0.50000000  0.00000000  3.906250e-03
0.56250000  0.56250000  0.00000000  3.906250e-03
0.56250000  0.62500000  0.00000000  3.906250e-03
0.56250000  0.68750000  0.00000000  3.906250e-03
0.56250000  0.75000000  0.00000000  3.906250e-03
0.56250000  0.81250000  0.00000000  3.906250e-03
0.56250000  0.87500000  0.00000000  3.906250e-03
0.56250000  0.93750000  0.00000000  3.906250e-03
0.62500000  0.00000000  0.00000000  3.906250e-03
0.62500000  0.06250000  0.00000000  3.906250e-03
0.62500000  0.12500000  0.00000000  3.906250e-03
0.62500000  0.18750000  0.00000000  3.906250e-03
0.62500000  0.25000000  0.00000000  3.906250e-03
0.62500000  0.31250000  0.00000000  3.906250e-03
0.62500000  0.37500000  0.00000000  3.906250e-03
0.62500000  0.43750000  0.00000000  3.906250e-03
0.62500000  0.50000000  0.00000000  3.906250e-03
0.62500000  0.56250000  0.00000000  3.906250e-03
0.62500000  0.62500000  0.00000000  3.906250e-03
0.62500000  0.68750000  0.00000000  3.906250e-03
0.62500000  0.75000000  0.00000000  3.906250e-03
0.62500000  0.81250000  0.00000000  3.906250e-03
0.62500000  0.87500000  0.00000000  3.906250e-03
0.62500000  0.93750000  0.00000000  3.906250e-03
0.68750000  0.00000000  0.00000000  3.906250e-03
0.68750000  0.06250000  0.00000000  3.906250e-03
0.68750000  0.12500000  0.00000000  3.906250e-03
0.68750000  0.18750000  0.00000000  3.906250e-03
0.68750000  0.25000000  0.00000000  3.906250e-03
0.68750000  0.31250000  0.00000000  3.906250e-03
0.68750000  0.37500000  0.00000000  3.906250e-03
0.68750000  0.43750000  0.00000000  3.906250e-03
0.68750000  0.50000000  0.00000000  3.906250e-03
0.68750000  0.56250000  0.00000000  3.906250e-03
0.68750000  0.62500000  0.00000000  3.906250e-03
0.68750000  0.68750000  0.00000000  3.906250e-03
0.68750000  0.75000000  0.00000000  3.906250e-03
0.68750000  0.81250000  0.00000000  3.906250e-03
0.68750000  0.87500000  0.00000000  3.906250e-03
0.68750000  0.93750000  0.00000000  3.906250e-03
0.75000000  0.00000000  0.00000000  3.906250e-03
0.75000000  0.06250000  0.00000000  3.906250e-03
0.75000000  0.12500000  0.00000000  3.906250e-03
0.75000000  0.18750000  0.00000000  3.906250e-03
0.75000000  0.25000000  0.00000000  3.906250e-03
0.75000000  0.31250000  0.00000000  3.906250e-03
0.75000000  0.37500000  0.00000000  3.906250e-03
0.75000000  0.43750000  0.00000000  3.906250e-03
0.75000000  0.50000000  0.00000000  3.906250e-03
0.75000000  0.56250000  0.00000000  3.906250e-03
0.75000000  0.62500000  0.00000000  3.906250e-03
0.75000000  0.68750000  0.00000000  3.906250e-03
0.75000000  0.75000000  0.00000000  3.906250e-03
0.75000000  0.81250000  0.00000000  3.906250e-03
0.75000000  0.87500000  0.00000000  3.906250e-03
0.75000000  0.93750000  0.00000000  3.906250e-03
0.81250000  0.00000000  0.00000000  3.906250e-03
0.81250000  0.06250000  0.00000000  3.906250e-03
0.81250000  0.12500000  0.00000000  3.906250e-03
0.81250000  0.18750000  0.00000000  3.906250e-03
0.81250000  0.25000000  0.00000000  3.906250e-03
0.81250000  0.31250000  0.00000000  3.906250e-03
0.81250000  0.37500000  0.00000000  3.906250e-03
0.81250000  0.43750000  0.00000000  3.906250e-03
0.81250000  0.50000000  0.00000000  3.906250e-03
0.81250000  0.56250000  0.00000000  3.906250e-03
0.81250000  0.62500000  0.00000000  3.906250e-03
0.81250000  0.68750000  0.00000000  3.906250e-03
0.81250000  0.75000000  0.00000000  3.906250e-03
0.81250000  0.81250000  0.00000000  3.906250e-03
0.81250000  0.87500000  0.00000000  3.906250e-03
0.81250000  0.93750000  0.00000000  3.906250e-03
0.87500000  0.00000000  0.00000000  3.906250e-03
0.87500000  0.06250000  0.00000000  3.906250e-03
0.87500000  0.12500000  0.00000000  3.906250e-03
0.87500000  0.18750000  0.00000000  3.906250e-03
0.87500000  0.25000000  0.00000000  3.906250e-03
0.87500000  0.31250000  0.00000000  3.906250e-03
0.87500000  0.37500000  0.00000000  3.906250e-03
0.87500000  0.43750000  0.00000000  3.906250e-03
0.87500000  0.50000000  0.00000000  3.906250e-03
0.87500000  0.56250000  0.00000000  3.906250e-03
0.87500000  0.62500000  0.00000000  3.906250e-03
0.87500000  0.68750000  0.00000000  3.906250e-03
0.87500000  0.75000000  0.00000000  3.906250e-03
0.87500000  0.81250000  0.00000000  3.906250e-03
0.87500000  0.87500000  0.00000000  3.906250e-03
0.87500000  0.93750000  0.00000000  3.906250e-03
0.93750000  0.00000000  0.00000000  3.906250e-03
0.93750000  0.06250000  0.00000000  3.906250e-03
0.93750000  0.12500000  0.00000000  3.906250e-03
0.93750000  0.18750000  0.00000000  3.906250e-03
0.93750000  0.25000000  0.00000000  3.906250e-03
0.93750000  0.31250000  0.00000000  3.906250e-03
0.93750000  0.37500000  0.00000000  3.906250e-03
0.93750000  0.43750000  0.00000000  3.906250e-03
0.93750000  0.50000000  0.00000000  3.906250e-03
0.93750000  0.56250000  0.00000000  3.906250e-03
0.93750000  0.62500000  0.00000000  3.906250e-03
0.93750000  0.68750000  0.00000000  3.906250e-03
0.93750000  0.75000000  0.00000000  3.906250e-03
0.93750000  0.81250000  0.00000000  3.906250e-03
0.93750000  0.87500000  0.00000000  3.906250e-03
0.93750000  0.93750000  0.00000000  3.906250e-03
