num_bands = 21
num_wann = 11

dis_win_min =  -10
dis_win_max =   10

dis_froz_min =  -2.3
dis_froz_max =   -0.6

write_hr=T

guiding_centres=T

Begin Projections
Nb:d
Se:p
End Projections

kpath = true
kpath_task = bands
kpath_num_points=1000

!use_bloch_phases : T

kslice = true
kslice_task = fermi_lines
fermi_energy = -1.6147
kslice_2dkmesh = 256 256
kslice_corner = 0.0  0.0  0.0
kslice_b1 =     2 -2 0
kslice_b2 =     2  2  0





begin unit_cell_cart
    3.4894000000     0.0000000000     0.0000000000
   -1.7447000000     3.0219090440     0.0000000000
    0.0000000000     0.0000000000    23.3679000000
end unit_cell_cart

begin atoms_cart
Se      -0.0000000000     2.0146060293    13.3679160000
Nb       0.0000000000     0.0000000000    11.6839500000
Se      -0.0000000000     2.0146060293     9.9999840000
end atoms_cart


bands_plot = true

begin kpoint_path
M 0.0000000000    0.5000000000     0.0000000000  G 0.0000000000     0.0000000000     0.0000000000
G 0.0000000000    0.0000000000     0.0000000000  K 0.3333333333     0.3333333333     0.0000000000
K 0.3333333333    0.3333333333     0.0000000000  M 0.0000000000     0.5000000000     0.0000000000
end kpoint_path

mp_grid           = 16 16 1
begin kpoints
0.00000000  0.00000000  0.00000000  3.906250e-03
0.00000000  0.06250000  0.00000000  3.906250e-03
0.00000000  0.12500000  0.00000000  3.906250e-03
0.00000000  0.18750000  0.00000000  3.906250e-03
0.00000000  0.25000000  0.00000000  3.906250e-03
0.00000000  0.31250000  0.00000000  3.906250e-03
0.00000000  0.37500000  0.00000000  3.906250e-03
0.00000000  0.43750000  0.00000000  3.906250e-03
0.00000000  0.50000000  0.00000000  3.906250e-03
0.00000000  0.56250000  0.00000000  3.906250e-03
0.00000000  0.62500000  0.00000000  3.906250e-03
0.00000000  0.68750000  0.00000000  3.906250e-03
0.00000000  0.75000000  0.00000000  3.906250e-03
0.00000000  0.81250000  0.00000000  3.906250e-03
0.00000000  0.87500000  0.00000000  3.906250e-03
0.00000000  0.93750000  0.00000000  3.906250e-03
0.06250000  0.00000000  0.00000000  3.906250e-03
0.06250000  0.06250000  0.00000000  3.906250e-03
0.06250000  0.12500000  0.00000000  3.906250e-03
0.06250000  0.18750000  0.00000000  3.906250e-03
0.06250000  0.25000000  0.00000000  3.906250e-03
0.06250000  0.31250000  0.00000000  3.906250e-03
0.06250000  0.37500000  0.00000000  3.906250e-03
0.06250000  0.43750000  0.00000000  3.906250e-03
0.06250000  0.50000000  0.00000000  3.906250e-03
0.06250000  0.56250000  0.00000000  3.906250e-03
0.06250000  0.62500000  0.00000000  3.906250e-03
0.06250000  0.68750000  0.00000000  3.906250e-03
0.06250000  0.75000000  0.00000000  3.906250e-03
0.06250000  0.81250000  0.00000000  3.906250e-03
0.06250000  0.87500000  0.00000000  3.906250e-03
0.06250000  0.93750000  0.00000000  3.906250e-03
0.12500000  0.00000000  0.00000000  3.906250e-03
0.12500000  0.06250000  0.00000000  3.906250e-03
0.12500000  0.12500000  0.00000000  3.906250e-03
0.12500000  0.18750000  0.00000000  3.906250e-03
0.12500000  0.25000000  0.00000000  3.906250e-03
0.12500000  0.31250000  0.00000000  3.906250e-03
0.12500000  0.37500000  0.00000000  3.906250e-03
0.12500000  0.43750000  0.00000000  3.906250e-03
0.12500000  0.50000000  0.00000000  3.906250e-03
0.12500000  0.56250000  0.00000000  3.906250e-03
0.12500000  0.62500000  0.00000000  3.906250e-03
0.12500000  0.68750000  0.00000000  3.906250e-03
0.12500000  0.75000000  0.00000000  3.906250e-03
0.12500000  0.81250000  0.00000000  3.906250e-03
0.12500000  0.87500000  0.00000000  3.906250e-03
0.12500000  0.93750000  0.00000000  3.906250e-03
0.18750000  0.00000000  0.00000000  3.906250e-03
0.18750000  0.06250000  0.00000000  3.906250e-03
0.18750000  0.12500000  0.00000000  3.906250e-03
0.18750000  0.18750000  0.00000000  3.906250e-03
0.18750000  0.25000000  0.00000000  3.906250e-03
0.18750000  0.31250000  0.00000000  3.906250e-03
0.18750000  0.37500000  0.00000000  3.906250e-03
0.18750000  0.43750000  0.00000000  3.906250e-03
0.18750000  0.50000000  0.00000000  3.906250e-03
0.18750000  0.56250000  0.00000000  3.906250e-03
0.18750000  0.62500000  0.00000000  3.906250e-03
0.18750000  0.68750000  0.00000000  3.906250e-03
0.18750000  0.75000000  0.00000000  3.906250e-03
0.18750000  0.81250000  0.00000000  3.906250e-03
0.18750000  0.87500000  0.00000000  3.906250e-03
0.18750000  0.93750000  0.00000000  3.906250e-03
0.25000000  0.00000000  0.00000000  3.906250e-03
0.25000000  0.06250000  0.00000000  3.906250e-03
0.25000000  0.12500000  0.00000000  3.906250e-03
0.25000000  0.18750000  0.00000000  3.906250e-03
0.25000000  0.25000000  0.00000000  3.906250e-03
0.25000000  0.31250000  0.00000000  3.906250e-03
0.25000000  0.37500000  0.00000000  3.906250e-03
0.25000000  0.43750000  0.00000000  3.906250e-03
0.25000000  0.50000000  0.00000000  3.906250e-03
0.25000000  0.56250000  0.00000000  3.906250e-03
0.25000000  0.62500000  0.00000000  3.906250e-03
0.25000000  0.68750000  0.00000000  3.906250e-03
0.25000000  0.75000000  0.00000000  3.906250e-03
0.25000000  0.81250000  0.00000000  3.906250e-03
0.25000000  0.87500000  0.00000000  3.906250e-03
0.25000000  0.93750000  0.00000000  3.906250e-03
0.31250000  0.00000000  0.00000000  3.906250e-03
0.31250000  0.06250000  0.00000000  3.906250e-03
0.31250000  0.12500000  0.00000000  3.906250e-03
0.31250000  0.18750000  0.00000000  3.906250e-03
0.31250000  0.25000000  0.00000000  3.906250e-03
0.31250000  0.31250000  0.00000000  3.906250e-03
0.31250000  0.37500000  0.00000000  3.906250e-03
0.31250000  0.43750000  0.00000000  3.906250e-03
0.31250000  0.50000000  0.00000000  3.906250e-03
0.31250000  0.56250000  0.00000000  3.906250e-03
0.31250000  0.62500000  0.00000000  3.906250e-03
0.31250000  0.68750000  0.00000000  3.906250e-03
0.31250000  0.75000000  0.00000000  3.906250e-03
0.31250000  0.81250000  0.00000000  3.906250e-03
0.31250000  0.87500000  0.00000000  3.906250e-03
0.31250000  0.93750000  0.00000000  3.906250e-03
0.37500000  0.00000000  0.00000000  3.906250e-03
0.37500000  0.06250000  0.00000000  3.906250e-03
0.37500000  0.12500000  0.00000000  3.906250e-03
0.37500000  0.18750000  0.00000000  3.906250e-03
0.37500000  0.25000000  0.00000000  3.906250e-03
0.37500000  0.31250000  0.00000000  3.906250e-03
0.37500000  0.37500000  0.00000000  3.906250e-03
0.37500000  0.43750000  0.00000000  3.906250e-03
0.37500000  0.50000000  0.00000000  3.906250e-03
0.37500000  0.56250000  0.00000000  3.906250e-03
0.37500000  0.62500000  0.00000000  3.906250e-03
0.37500000  0.68750000  0.00000000  3.906250e-03
0.37500000  0.75000000  0.00000000  3.906250e-03
0.37500000  0.81250000  0.00000000  3.906250e-03
0.37500000  0.87500000  0.00000000  3.906250e-03
0.37500000  0.93750000  0.00000000  3.906250e-03
0.43750000  0.00000000  0.00000000  3.906250e-03
0.43750000  0.06250000  0.00000000  3.906250e-03
0.43750000  0.12500000  0.00000000  3.906250e-03
0.43750000  0.18750000  0.00000000  3.906250e-03
0.43750000  0.25000000  0.00000000  3.906250e-03
0.43750000  0.31250000  0.00000000  3.906250e-03
0.43750000  0.37500000  0.00000000  3.906250e-03
0.43750000  0.43750000  0.00000000  3.906250e-03
0.43750000  0.50000000  0.00000000  3.906250e-03
0.43750000  0.56250000  0.00000000  3.906250e-03
0.43750000  0.62500000  0.00000000  3.906250e-03
0.43750000  0.68750000  0.00000000  3.906250e-03
0.43750000  0.75000000  0.00000000  3.906250e-03
0.43750000  0.81250000  0.00000000  3.906250e-03
0.43750000  0.87500000  0.00000000  3.906250e-03
0.43750000  0.93750000  0.00000000  3.906250e-03
0.50000000  0.00000000  0.00000000  3.906250e-03
0.50000000  0.06250000  0.00000000  3.906250e-03
0.50000000  0.12500000  0.00000000  3.906250e-03
0.50000000  0.18750000  0.00000000  3.906250e-03
0.50000000  0.25000000  0.00000000  3.906250e-03
0.50000000  0.31250000  0.00000000  3.906250e-03
0.50000000  0.37500000  0.00000000  3.906250e-03
0.50000000  0.43750000  0.00000000  3.906250e-03
0.50000000  0.50000000  0.00000000  3.906250e-03
0.50000000  0.56250000  0.00000000  3.906250e-03
0.50000000  0.62500000  0.00000000  3.906250e-03
0.50000000  0.68750000  0.00000000  3.906250e-03
0.50000000  0.75000000  0.00000000  3.906250e-03
0.50000000  0.81250000  0.00000000  3.906250e-03
0.50000000  0.87500000  0.00000000  3.906250e-03
0.50000000  0.93750000  0.00000000  3.906250e-03
0.56250000  0.00000000  0.00000000  3.906250e-03
0.56250000  0.06250000  0.00000000  3.906250e-03
0.56250000  0.12500000  0.00000000  3.906250e-03
0.56250000  0.18750000  0.00000000  3.906250e-03
0.56250000  0.25000000  0.00000000  3.906250e-03
0.56250000  0.31250000  0.00000000  3.906250e-03
0.56250000  0.37500000  0.00000000  3.906250e-03
0.56250000  0.43750000  0.00000000  3.906250e-03
0.56250000  0.50000000  0.00000000  3.906250e-03
0.56250000  0.56250000  0.00000000  3.906250e-03
0.56250000  0.62500000  0.00000000  3.906250e-03
0.56250000  0.68750000  0.00000000  3.906250e-03
0.56250000  0.75000000  0.00000000  3.906250e-03
0.56250000  0.81250000  0.00000000  3.906250e-03
0.56250000  0.87500000  0.00000000  3.906250e-03
0.56250000  0.93750000  0.00000000  3.906250e-03
0.62500000  0.00000000  0.00000000  3.906250e-03
0.62500000  0.06250000  0.00000000  3.906250e-03
0.62500000  0.12500000  0.00000000  3.906250e-03
0.62500000  0.18750000  0.00000000  3.906250e-03
0.62500000  0.25000000  0.00000000  3.906250e-03
0.62500000  0.31250000  0.00000000  3.906250e-03
0.62500000  0.37500000  0.00000000  3.906250e-03
0.62500000  0.43750000  0.00000000  3.906250e-03
0.62500000  0.50000000  0.00000000  3.906250e-03
0.62500000  0.56250000  0.00000000  3.906250e-03
0.62500000  0.62500000  0.00000000  3.906250e-03
0.62500000  0.68750000  0.00000000  3.906250e-03
0.62500000  0.75000000  0.00000000  3.906250e-03
0.62500000  0.81250000  0.00000000  3.906250e-03
0.62500000  0.87500000  0.00000000  3.906250e-03
0.62500000  0.93750000  0.00000000  3.906250e-03
0.68750000  0.00000000  0.00000000  3.906250e-03
0.68750000  0.06250000  0.00000000  3.906250e-03
0.68750000  0.12500000  0.00000000  3.906250e-03
0.68750000  0.18750000  0.00000000  3.906250e-03
0.68750000  0.25000000  0.00000000  3.906250e-03
0.68750000  0.31250000  0.00000000  3.906250e-03
0.68750000  0.37500000  0.00000000  3.906250e-03
0.68750000  0.43750000  0.00000000  3.906250e-03
0.68750000  0.50000000  0.00000000  3.906250e-03
0.68750000  0.56250000  0.00000000  3.906250e-03
0.68750000  0.62500000  0.00000000  3.906250e-03
0.68750000  0.68750000  0.00000000  3.906250e-03
0.68750000  0.75000000  0.00000000  3.906250e-03
0.68750000  0.81250000  0.00000000  3.906250e-03
0.68750000  0.87500000  0.00000000  3.906250e-03
0.68750000  0.93750000  0.00000000  3.906250e-03
0.75000000  0.00000000  0.00000000  3.906250e-03
0.75000000  0.06250000  0.00000000  3.906250e-03
0.75000000  0.12500000  0.00000000  3.906250e-03
0.75000000  0.18750000  0.00000000  3.906250e-03
0.75000000  0.25000000  0.00000000  3.906250e-03
0.75000000  0.31250000  0.00000000  3.906250e-03
0.75000000  0.37500000  0.00000000  3.906250e-03
0.75000000  0.43750000  0.00000000  3.906250e-03
0.75000000  0.50000000  0.00000000  3.906250e-03
0.75000000  0.56250000  0.00000000  3.906250e-03
0.75000000  0.62500000  0.00000000  3.906250e-03
0.75000000  0.68750000  0.00000000  3.906250e-03
0.75000000  0.75000000  0.00000000  3.906250e-03
0.75000000  0.81250000  0.00000000  3.906250e-03
0.75000000  0.87500000  0.00000000  3.906250e-03
0.75000000  0.93750000  0.00000000  3.906250e-03
0.81250000  0.00000000  0.00000000  3.906250e-03
0.81250000  0.06250000  0.00000000  3.906250e-03
0.81250000  0.12500000  0.00000000  3.906250e-03
0.81250000  0.18750000  0.00000000  3.906250e-03
0.81250000  0.25000000  0.00000000  3.906250e-03
0.81250000  0.31250000  0.00000000  3.906250e-03
0.81250000  0.37500000  0.00000000  3.906250e-03
0.81250000  0.43750000  0.00000000  3.906250e-03
0.81250000  0.50000000  0.00000000  3.906250e-03
0.81250000  0.56250000  0.00000000  3.906250e-03
0.81250000  0.62500000  0.00000000  3.906250e-03
0.81250000  0.68750000  0.00000000  3.906250e-03
0.81250000  0.75000000  0.00000000  3.906250e-03
0.81250000  0.81250000  0.00000000  3.906250e-03
0.81250000  0.87500000  0.00000000  3.906250e-03
0.81250000  0.93750000  0.00000000  3.906250e-03
0.87500000  0.00000000  0.00000000  3.906250e-03
0.87500000  0.06250000  0.00000000  3.906250e-03
0.87500000  0.12500000  0.00000000  3.906250e-03
0.87500000  0.18750000  0.00000000  3.906250e-03
0.87500000  0.25000000  0.00000000  3.906250e-03
0.87500000  0.31250000  0.00000000  3.906250e-03
0.87500000  0.37500000  0.00000000  3.906250e-03
0.87500000  0.43750000  0.00000000  3.906250e-03
0.87500000  0.50000000  0.00000000  3.906250e-03
0.87500000  0.56250000  0.00000000  3.906250e-03
0.87500000  0.62500000  0.00000000  3.906250e-03
0.87500000  0.68750000  0.00000000  3.906250e-03
0.87500000  0.75000000  0.00000000  3.906250e-03
0.87500000  0.81250000  0.00000000  3.906250e-03
0.87500000  0.87500000  0.00000000  3.906250e-03
0.87500000  0.93750000  0.00000000  3.906250e-03
0.93750000  0.00000000  0.00000000  3.906250e-03
0.93750000  0.06250000  0.00000000  3.906250e-03
0.93750000  0.12500000  0.00000000  3.906250e-03
0.93750000  0.18750000  0.00000000  3.906250e-03
0.93750000  0.25000000  0.00000000  3.906250e-03
0.93750000  0.31250000  0.00000000  3.906250e-03
0.93750000  0.37500000  0.00000000  3.906250e-03
0.93750000  0.43750000  0.00000000  3.906250e-03
0.93750000  0.50000000  0.00000000  3.906250e-03
0.93750000  0.56250000  0.00000000  3.906250e-03
0.93750000  0.62500000  0.00000000  3.906250e-03
0.93750000  0.68750000  0.00000000  3.906250e-03
0.93750000  0.75000000  0.00000000  3.906250e-03
0.93750000  0.81250000  0.00000000  3.906250e-03
0.93750000  0.87500000  0.00000000  3.906250e-03
0.93750000  0.93750000  0.00000000  3.906250e-03
end kpoints
