&CONTROL
    calculation  = "nscf"
    restart_mode='from_scratch'
    prefix="nbse2"
    pseudo_dir   = "../Pseudos/"
    outdir="./outdir"
/


&SYSTEM
    a                         =  3.48940e+00
    c                         =  2.33679e+01
    degauss                   =  1.00000e-02
    ecutwfc                   =  5.52247e+01
    ibrav                     = 4
    lspinorb                  = .TRUE.
    nat                       = 3
    noncolin                  = .TRUE.
    ntyp                      = 2
    occupations               = "tetrahedra"
    smearing                  = "gaussian"
/

&ELECTRONS
    conv_thr         =  1.00000e-08
    mixing_beta      =  4.00000e-01
/

K_POINTS {automatic}
 24  24  1  0 0 0

ATOMIC_SPECIES
Se     78.96000  Se.rel-pbe-n-kjpaw_psl.0.2.UPF
Nb     92.90638  Nb.rel-pbe-spn-kjpaw_psl.1.0.0.UPF

ATOMIC_POSITIONS {angstrom}
Se     -0.000000   2.014608  13.367933
Nb      0.000000   0.000000  11.683967  0 0 0
Se     -0.000000   2.014608  10.000000  0 0 0
